\ random bounded LP: 30 rows, 40 cols, seed 42 (gen_rand.py)
Maximize
 obj: 9 v0 + 8 v1 + 5 v2 + 3 v3 + 7 v4 + 8 v5 + 2 v6 + 8 v7 + 6 v8 + 7 v9 + 6 v10 + 6 v11 + 2 v12 + 3 v13 + 6 v14 + 7 v15 + 8 v16 + 5 v17 + 7 v18 + 9 v19 + 1 v20 + 8 v21 + 2 v22 + 6 v23 + 5 v24 + 6 v25 + 2 v26 + 7 v27 + 9 v28 + 1 v29 + 9 v30 + 8 v31 + 7 v32 + 1 v33 + 4 v34 + 9 v35 + 6 v36 + 8 v37 + 8 v38 + 1 v39
Subject To
 r0: 4 v0 + 4 v3 + 1 v4 + 4 v8 + 4 v10 + 4 v11 + 3 v12 + 3 v14 + 2 v15 + 3 v21 + 3 v22 + 3 v24 + 4 v26 + 4 v27 + 4 v28 + 3 v29 + 2 v30 + 2 v32 + 3 v33 + 1 v34 + 5 v35 + 5 v36 + 5 v38 + 5 v39 <= 80
 r1: 4 v1 + 2 v2 + 1 v3 + 1 v4 + 5 v7 + 1 v8 + 2 v11 + 1 v13 + 5 v14 + 1 v15 + 3 v16 + 1 v17 + 5 v18 + 4 v20 + 2 v21 + 3 v22 + 2 v24 + 3 v26 + 1 v27 + 5 v28 + 4 v29 + 3 v30 + 5 v31 + 1 v32 + 3 v33 + 4 v35 + 4 v38 <= 61
 r2: 5 v0 + 1 v1 + 5 v3 + 5 v5 + 2 v7 + 1 v8 + 2 v9 + 4 v10 + 5 v11 + 1 v12 + 1 v14 + 1 v15 + 4 v17 + 1 v18 + 4 v19 + 4 v20 + 4 v21 + 3 v23 + 4 v24 + 3 v26 + 4 v27 + 2 v30 + 2 v31 + 1 v32 + 4 v33 + 4 v34 + 3 v35 + 4 v37 + 1 v38 + 5 v39 <= 112
 r3: 5 v0 + 5 v1 + 5 v4 + 5 v6 + 1 v7 + 2 v8 + 1 v9 + 3 v12 + 4 v13 + 1 v14 + 4 v16 + 2 v17 + 2 v18 + 4 v19 + 2 v20 + 1 v22 + 4 v25 + 3 v26 + 3 v27 + 1 v28 + 4 v29 + 3 v30 + 2 v31 + 3 v32 + 2 v33 + 1 v34 + 3 v37 + 2 v38 <= 70
 r4: 5 v0 + 5 v2 + 4 v5 + 5 v7 + 4 v8 + 2 v9 + 3 v10 + 2 v12 + 2 v13 + 3 v14 + 2 v15 + 3 v16 + 1 v17 + 3 v18 + 5 v19 + 4 v21 + 4 v22 + 4 v24 + 3 v25 + 5 v26 + 1 v27 + 5 v28 + 4 v29 + 1 v30 + 1 v32 + 2 v33 + 2 v35 + 4 v37 + 4 v38 + 1 v39 <= 86
 r5: 3 v0 + 5 v1 + 3 v3 + 5 v5 + 4 v6 + 1 v7 + 5 v8 + 4 v9 + 3 v10 + 3 v11 + 1 v14 + 5 v15 + 3 v17 + 5 v18 + 3 v19 + 3 v21 + 1 v22 + 2 v23 + 1 v26 + 5 v27 + 5 v28 + 1 v29 + 3 v33 + 4 v36 + 2 v37 + 5 v38 <= 93
 r6: 5 v0 + 3 v1 + 5 v2 + 4 v5 + 2 v6 + 3 v7 + 1 v9 + 3 v10 + 5 v11 + 3 v12 + 2 v13 + 3 v15 + 5 v16 + 4 v17 + 4 v18 + 4 v20 + 1 v21 + 2 v22 + 4 v23 + 4 v24 + 1 v25 + 2 v26 + 3 v27 + 2 v28 + 1 v33 + 3 v35 + 3 v36 + 3 v38 <= 90
 r7: 4 v2 + 4 v3 + 5 v8 + 1 v9 + 3 v11 + 1 v13 + 4 v14 + 2 v15 + 3 v17 + 4 v19 + 3 v20 + 3 v21 + 2 v22 + 5 v24 + 2 v25 + 5 v26 + 2 v27 + 4 v31 + 2 v32 + 1 v33 + 2 v34 + 2 v35 + 2 v36 + 5 v37 + 4 v38 <= 82
 r8: 4 v0 + 4 v1 + 4 v2 + 2 v5 + 4 v6 + 1 v7 + 5 v8 + 5 v9 + 3 v14 + 2 v15 + 2 v17 + 1 v19 + 2 v20 + 5 v22 + 2 v24 + 5 v25 + 5 v26 + 5 v27 + 3 v28 + 4 v31 + 3 v32 + 5 v33 + 5 v36 + 5 v37 <= 86
 r9: 2 v0 + 2 v1 + 2 v2 + 5 v4 + 2 v5 + 2 v8 + 2 v10 + 1 v11 + 5 v12 + 5 v13 + 2 v14 + 1 v15 + 2 v16 + 4 v17 + 4 v18 + 5 v19 + 3 v20 + 4 v21 + 4 v22 + 2 v23 + 1 v26 + 3 v29 + 4 v30 + 3 v31 + 4 v33 + 1 v34 + 3 v37 + 2 v38 + 3 v39 <= 82
 r10: 5 v0 + 3 v1 + 3 v4 + 5 v6 + 3 v9 + 4 v11 + 5 v12 + 2 v14 + 3 v16 + 3 v18 + 3 v19 + 3 v21 + 2 v23 + 4 v24 + 3 v25 + 3 v26 + 3 v27 + 1 v28 + 1 v29 + 4 v31 + 4 v32 + 1 v33 + 1 v35 + 2 v36 + 4 v38 + 4 v39 <= 83
 r11: 1 v0 + 2 v1 + 1 v2 + 5 v3 + 2 v6 + 3 v7 + 3 v8 + 3 v11 + 3 v13 + 1 v14 + 1 v16 + 1 v19 + 1 v20 + 2 v22 + 5 v23 + 3 v24 + 4 v25 + 1 v26 + 3 v27 + 5 v28 + 4 v29 + 3 v30 + 4 v32 + 5 v33 + 3 v34 + 1 v35 + 4 v36 + 1 v39 <= 77
 r12: 4 v2 + 3 v3 + 1 v5 + 1 v6 + 3 v7 + 4 v9 + 1 v10 + 4 v12 + 4 v13 + 5 v14 + 1 v15 + 3 v16 + 2 v17 + 1 v18 + 5 v19 + 4 v22 + 2 v23 + 5 v24 + 1 v25 + 1 v28 + 5 v29 + 4 v31 + 1 v32 + 4 v34 + 2 v35 + 3 v36 + 4 v37 + 2 v38 + 3 v39 <= 89
 r13: 4 v3 + 3 v5 + 5 v7 + 1 v8 + 3 v9 + 3 v10 + 2 v12 + 1 v15 + 1 v16 + 5 v17 + 5 v18 + 1 v20 + 4 v22 + 4 v24 + 1 v26 + 5 v27 + 3 v28 + 5 v29 + 2 v30 + 3 v31 + 4 v32 + 5 v35 + 5 v37 + 5 v38 <= 73
 r14: 2 v0 + 4 v3 + 1 v4 + 5 v5 + 2 v6 + 5 v7 + 4 v8 + 5 v9 + 4 v10 + 5 v11 + 1 v13 + 5 v15 + 4 v16 + 2 v18 + 5 v19 + 5 v21 + 2 v22 + 5 v25 + 2 v26 + 1 v27 + 1 v28 + 5 v29 + 5 v30 + 5 v31 + 4 v35 + 2 v37 + 1 v38 + 1 v39 <= 91
 r15: 5 v0 + 5 v2 + 1 v3 + 1 v4 + 4 v5 + 3 v6 + 2 v7 + 4 v8 + 5 v9 + 3 v10 + 1 v11 + 1 v14 + 3 v16 + 1 v17 + 3 v20 + 2 v21 + 1 v22 + 4 v23 + 5 v24 + 1 v25 + 2 v26 + 3 v27 + 3 v28 + 2 v30 + 3 v31 + 1 v33 + 4 v35 + 2 v36 + 3 v38 + 5 v39 <= 84
 r16: 3 v0 + 4 v1 + 4 v2 + 4 v3 + 4 v4 + 4 v5 + 1 v7 + 2 v8 + 4 v10 + 1 v11 + 3 v12 + 1 v13 + 4 v14 + 5 v15 + 4 v17 + 1 v18 + 3 v19 + 1 v20 + 4 v21 + 2 v22 + 1 v23 + 2 v24 + 4 v25 + 1 v26 + 3 v27 + 2 v30 + 4 v31 + 2 v32 + 4 v33 + 4 v34 + 3 v36 + 3 v37 + 1 v38 + 2 v39 <= 111
 r17: 3 v0 + 5 v1 + 1 v3 + 1 v4 + 2 v6 + 5 v7 + 3 v8 + 3 v9 + 4 v10 + 1 v11 + 2 v12 + 2 v13 + 2 v14 + 4 v15 + 3 v17 + 2 v18 + 5 v19 + 5 v20 + 4 v21 + 4 v23 + 1 v25 + 3 v26 + 4 v27 + 4 v28 + 3 v29 + 1 v30 + 5 v32 + 5 v33 + 4 v35 + 1 v36 + 5 v38 <= 94
 r18: 2 v4 + 3 v5 + 5 v6 + 5 v7 + 2 v9 + 2 v10 + 4 v11 + 3 v12 + 4 v14 + 4 v15 + 2 v16 + 2 v17 + 2 v18 + 4 v21 + 4 v22 + 5 v24 + 5 v25 + 5 v26 + 5 v28 + 2 v29 + 5 v32 + 4 v33 + 3 v34 + 2 v35 + 3 v37 + 5 v39 <= 85
 r19: 2 v1 + 5 v3 + 2 v4 + 4 v5 + 3 v6 + 3 v7 + 3 v8 + 1 v9 + 5 v10 + 2 v11 + 3 v12 + 5 v13 + 4 v14 + 3 v15 + 2 v16 + 5 v17 + 3 v18 + 2 v19 + 4 v21 + 5 v22 + 2 v23 + 2 v24 + 1 v25 + 5 v26 + 5 v28 + 4 v29 + 1 v30 + 5 v31 + 5 v32 + 3 v33 + 2 v34 + 4 v35 + 1 v37 + 2 v38 <= 100
 r20: 4 v0 + 1 v1 + 1 v3 + 1 v4 + 1 v5 + 3 v6 + 2 v11 + 4 v12 + 4 v14 + 2 v17 + 2 v18 + 1 v19 + 3 v20 + 2 v21 + 2 v22 + 5 v25 + 2 v26 + 2 v27 + 5 v28 + 3 v29 + 4 v30 + 5 v32 + 5 v33 + 3 v34 + 2 v35 + 2 v36 + 1 v38 + 1 v39 <= 82
 r21: 5 v0 + 2 v1 + 5 v2 + 5 v3 + 2 v4 + 3 v5 + 4 v6 + 4 v7 + 3 v8 + 5 v9 + 3 v10 + 2 v12 + 1 v14 + 2 v15 + 2 v16 + 2 v18 + 1 v19 + 4 v20 + 4 v21 + 5 v22 + 2 v23 + 4 v24 + 5 v26 + 2 v27 + 3 v29 + 3 v30 + 2 v32 + 3 v33 + 3 v34 + 4 v35 + 4 v38 + 2 v39 <= 98
 r22: 5 v1 + 2 v2 + 1 v5 + 2 v6 + 1 v7 + 2 v9 + 1 v10 + 1 v11 + 5 v12 + 2 v13 + 1 v14 + 5 v15 + 5 v16 + 2 v17 + 1 v18 + 5 v19 + 2 v21 + 4 v23 + 3 v24 + 1 v26 + 4 v28 + 5 v30 + 4 v31 + 5 v33 + 5 v37 + 3 v39 <= 77
 r23: 2 v3 + 4 v4 + 3 v6 + 2 v8 + 4 v9 + 1 v10 + 5 v11 + 1 v12 + 3 v14 + 3 v15 + 4 v16 + 4 v17 + 5 v19 + 5 v20 + 1 v22 + 3 v24 + 1 v26 + 3 v27 + 4 v28 + 2 v29 + 2 v30 + 4 v31 + 3 v34 + 4 v35 + 5 v36 + 4 v37 <= 84
 r24: 4 v0 + 5 v1 + 1 v2 + 5 v3 + 4 v4 + 3 v5 + 5 v6 + 5 v8 + 3 v9 + 5 v10 + 1 v12 + 3 v13 + 2 v14 + 4 v15 + 1 v16 + 3 v18 + 4 v19 + 1 v20 + 5 v22 + 2 v23 + 5 v24 + 2 v25 + 2 v27 + 1 v28 + 4 v29 + 5 v30 + 2 v31 + 4 v32 + 2 v34 + 4 v36 + 3 v37 + 4 v38 + 1 v39 <= 95
 r25: 3 v0 + 5 v1 + 3 v2 + 5 v3 + 2 v4 + 2 v5 + 2 v6 + 5 v7 + 4 v8 + 3 v9 + 1 v10 + 1 v11 + 5 v12 + 5 v14 + 1 v16 + 2 v17 + 5 v19 + 2 v20 + 3 v21 + 3 v22 + 4 v23 + 2 v24 + 1 v25 + 2 v27 + 5 v28 + 1 v29 + 2 v31 + 1 v33 + 5 v34 + 1 v35 + 1 v36 + 1 v37 + 3 v38 + 4 v39 <= 108
 r26: 1 v0 + 3 v1 + 3 v3 + 4 v7 + 2 v8 + 2 v9 + 3 v10 + 5 v11 + 4 v13 + 2 v14 + 4 v15 + 4 v16 + 2 v17 + 2 v18 + 5 v19 + 1 v22 + 2 v24 + 4 v25 + 1 v27 + 4 v28 + 3 v29 + 1 v30 + 2 v31 + 3 v32 + 3 v33 + 1 v34 + 2 v35 + 4 v36 + 3 v37 + 1 v38 + 1 v39 <= 91
 r27: 4 v0 + 2 v1 + 1 v2 + 1 v3 + 1 v4 + 4 v7 + 1 v9 + 4 v11 + 3 v12 + 5 v13 + 4 v14 + 4 v18 + 2 v19 + 1 v20 + 4 v21 + 3 v22 + 5 v23 + 3 v24 + 3 v25 + 1 v26 + 5 v28 + 1 v30 + 1 v32 + 1 v34 + 4 v36 + 3 v37 + 1 v39 <= 75
 r28: 3 v2 + 1 v3 + 4 v4 + 4 v6 + 5 v7 + 5 v8 + 2 v9 + 5 v11 + 3 v13 + 1 v14 + 2 v15 + 2 v16 + 2 v17 + 1 v18 + 1 v21 + 5 v22 + 2 v23 + 5 v25 + 2 v27 + 2 v28 + 3 v30 + 4 v31 + 4 v32 + 5 v36 + 3 v37 + 1 v38 <= 71
 r29: 3 v2 + 5 v3 + 2 v4 + 3 v5 + 3 v6 + 5 v7 + 3 v8 + 5 v10 + 3 v11 + 2 v12 + 2 v13 + 2 v14 + 1 v15 + 5 v16 + 3 v17 + 2 v18 + 1 v19 + 3 v20 + 3 v21 + 3 v23 + 4 v24 + 5 v26 + 4 v28 + 1 v30 + 4 v31 + 3 v36 <= 73
End
