\ random bounded LP: 12 rows, 20 cols, seed 7 (gen_rand.py)
Maximize
 obj: 1 v0 + 4 v1 + 9 v2 + 6 v3 + 3 v4 + 9 v5 + 1 v6 + 9 v7 + 5 v8 + 2 v9 + 5 v10 + 9 v11 + 6 v12 + 3 v13 + 6 v14 + 4 v15 + 9 v16 + 9 v17 + 9 v18 + 6 v19
Subject To
 r0: 1 v0 + 2 v2 + 4 v3 + 5 v6 + 3 v7 + 1 v9 + 3 v10 + 3 v12 + 2 v16 + 2 v17 <= 19
 r1: 3 v1 + 2 v2 + 5 v4 + 3 v5 + 4 v8 + 4 v9 + 3 v10 + 3 v12 + 3 v13 + 2 v14 + 3 v18 + 5 v19 <= 41
 r2: 1 v1 + 2 v2 + 3 v4 + 3 v6 + 1 v7 + 3 v8 + 5 v9 + 4 v10 + 3 v13 + 3 v14 + 4 v15 + 1 v17 + 3 v19 <= 28
 r3: 4 v0 + 3 v2 + 3 v4 + 2 v6 + 4 v7 + 3 v8 + 2 v9 + 5 v10 + 1 v11 + 2 v12 + 3 v13 + 2 v14 + 1 v15 + 1 v16 + 5 v18 <= 32
 r4: 4 v0 + 5 v1 + 3 v4 + 1 v5 + 3 v6 + 2 v7 + 1 v8 + 4 v9 + 2 v10 + 1 v11 + 3 v12 + 3 v15 + 2 v16 + 5 v18 + 1 v19 <= 45
 r5: 2 v1 + 2 v2 + 4 v4 + 5 v6 + 3 v7 + 3 v8 + 5 v9 + 5 v10 + 1 v11 + 1 v12 + 4 v13 + 1 v14 + 3 v15 + 2 v16 + 3 v17 + 5 v18 + 2 v19 <= 46
 r6: 5 v1 + 1 v3 + 2 v4 + 4 v5 + 4 v6 + 4 v9 + 4 v10 + 1 v11 + 4 v12 + 3 v13 + 4 v14 + 5 v15 + 2 v16 + 1 v17 + 4 v18 + 2 v19 <= 53
 r7: 4 v0 + 1 v1 + 2 v3 + 1 v4 + 3 v6 + 2 v8 + 5 v11 + 1 v12 + 4 v14 + 2 v16 + 2 v17 + 5 v18 + 2 v19 <= 37
 r8: 2 v2 + 2 v3 + 3 v4 + 1 v5 + 5 v7 + 2 v8 + 5 v9 + 3 v10 + 1 v11 + 4 v12 + 2 v13 + 1 v14 + 4 v15 + 2 v16 <= 27
 r9: 4 v3 + 2 v6 + 5 v7 + 3 v8 + 1 v10 + 1 v11 + 2 v14 + 3 v15 + 1 v16 + 3 v17 + 3 v18 + 1 v19 <= 24
 r10: 4 v1 + 5 v2 + 3 v3 + 3 v4 + 4 v5 + 4 v6 + 4 v7 + 2 v9 + 5 v10 + 5 v11 + 5 v12 + 4 v13 + 5 v14 + 3 v15 + 2 v16 + 2 v17 + 2 v18 + 2 v19 <= 55
 r11: 2 v1 + 4 v2 + 2 v3 + 2 v8 + 1 v11 + 3 v12 + 3 v16 + 3 v18 <= 23
End
