\* flattened by flatten_lp.py from pilot/pilot_204880136538.lp *\

Maximize
 objective: + ln(0) + ln(1) + ln(2) + ln(3) + ln(4) + ln(5) + ln(6) + ln(7) + ln(8) + ln(9) + ln(10) + ln(11) + ln(12) + ln(13) + ln(14)

Subject To
 ynsum_def__le: + yn(0) + yn(1) + yn(2) + yn(3) + yn(4) + yn(5) + yn(6) + yn(7) + yn(8) + yn(9) + yn(10) + yn(11) + yn(12) + yn(13) + yn(14) - ynsum__pos + ynsum__neg <= 0
 ynsum_def__ge: + yn(0) + yn(1) + yn(2) + yn(3) + yn(4) + yn(5) + yn(6) + yn(7) + yn(8) + yn(9) + yn(10) + yn(11) + yn(12) + yn(13) + yn(14) - ynsum__pos + ynsum__neg >= 0
 sqdeficit_def__le: - tau(0) - tau(1) - tau(2) - tau(3) - tau(4) - tau(5) - tau(6) - tau(7) - tau(8) - tau(9) - tau(10) - tau(11) - tau(12) - tau(13) - tau(14) - tau(15) - tau(16) - tau(17) - tau(18) - tau(19) - tau(20) - sqdeficit__pos + sqdeficit__neg <= -1.541
 sqdeficit_def__ge: - tau(0) - tau(1) - tau(2) - tau(3) - tau(4) - tau(5) - tau(6) - tau(7) - tau(8) - tau(9) - tau(10) - tau(11) - tau(12) - tau(13) - tau(14) - tau(15) - tau(16) - tau(17) - tau(18) - tau(19) - tau(20) - sqdeficit__pos + sqdeficit__neg >= -1.541
 azim_sum(0)__le: + azim(0,1) + azim(0,3) + azim(0,4) + azim(0,5) <= 6.28318530717959
 azim_sum(0)__ge: + azim(0,1) + azim(0,3) + azim(0,4) + azim(0,5) >= 6.28318530717959
 azim_sum(1)__le: + azim(1,3) + azim(1,5) + azim(1,6) + azim(1,7) <= 6.28318530717959
 azim_sum(1)__ge: + azim(1,3) + azim(1,5) + azim(1,6) + azim(1,7) >= 6.28318530717959
 azim_sum(2)__le: + azim(2,2) + azim(2,3) + azim(2,6) + azim(2,20) <= 6.28318530717959
 azim_sum(2)__ge: + azim(2,2) + azim(2,3) + azim(2,6) + azim(2,20) >= 6.28318530717959
 azim_sum(3)__le: + azim(3,0) + azim(3,3) + azim(3,4) + azim(3,20) <= 6.28318530717959
 azim_sum(3)__ge: + azim(3,0) + azim(3,3) + azim(3,4) + azim(3,20) >= 6.28318530717959
 azim_sum(4)__le: + azim(4,0) + azim(4,4) + azim(4,10) + azim(4,11) <= 6.28318530717959
 azim_sum(4)__ge: + azim(4,0) + azim(4,4) + azim(4,10) + azim(4,11) >= 6.28318530717959
 azim_sum(5)__le: + azim(5,1) + azim(5,4) + azim(5,9) + azim(5,10) <= 6.28318530717959
 azim_sum(5)__ge: + azim(5,1) + azim(5,4) + azim(5,9) + azim(5,10) >= 6.28318530717959
 azim_sum(6)__le: + azim(6,0) + azim(6,2) + azim(6,8) + azim(6,20) <= 6.28318530717959
 azim_sum(6)__ge: + azim(6,0) + azim(6,2) + azim(6,8) + azim(6,20) >= 6.28318530717959
 azim_sum(7)__le: + azim(7,0) + azim(7,8) + azim(7,11) + azim(7,17) + azim(7,18) <= 6.28318530717959
 azim_sum(7)__ge: + azim(7,0) + azim(7,8) + azim(7,11) + azim(7,17) + azim(7,18) >= 6.28318530717959
 azim_sum(8)__le: + azim(8,1) + azim(8,5) + azim(8,7) + azim(8,13) + azim(8,14) <= 6.28318530717959
 azim_sum(8)__ge: + azim(8,1) + azim(8,5) + azim(8,7) + azim(8,13) + azim(8,14) >= 6.28318530717959
 azim_sum(9)__le: + azim(9,1) + azim(9,9) + azim(9,14) + azim(9,15) + azim(9,16) <= 6.28318530717959
 azim_sum(9)__ge: + azim(9,1) + azim(9,9) + azim(9,14) + azim(9,15) + azim(9,16) >= 6.28318530717959
 azim_sum(10)__le: + azim(10,2) + azim(10,6) + azim(10,7) + azim(10,12) + azim(10,13) <= 6.28318530717959
 azim_sum(10)__ge: + azim(10,2) + azim(10,6) + azim(10,7) + azim(10,12) + azim(10,13) >= 6.28318530717959
 azim_sum(11)__le: + azim(11,2) + azim(11,8) + azim(11,12) + azim(11,18) + azim(11,19) <= 6.28318530717959
 azim_sum(11)__ge: + azim(11,2) + azim(11,8) + azim(11,12) + azim(11,18) + azim(11,19) >= 6.28318530717959
 azim_sum(12)__le: + azim(12,9) + azim(12,10) + azim(12,11) + azim(12,16) + azim(12,17) <= 6.28318530717959
 azim_sum(12)__ge: + azim(12,9) + azim(12,10) + azim(12,11) + azim(12,16) + azim(12,17) >= 6.28318530717959
 azim_sum(13)__le: + azim(13,12) + azim(13,13) + azim(13,14) + azim(13,15) + azim(13,19) <= 6.28318530717959
 azim_sum(13)__ge: + azim(13,12) + azim(13,13) + azim(13,14) + azim(13,15) + azim(13,19) >= 6.28318530717959
 azim_sum(14)__le: + azim(14,15) + azim(14,16) + azim(14,17) + azim(14,18) + azim(14,19) <= 6.28318530717959
 azim_sum(14)__ge: + azim(14,15) + azim(14,16) + azim(14,17) + azim(14,18) + azim(14,19) >= 6.28318530717959
 rhazim_sum(0)__le: + rhazim(0,1) + rhazim(0,3) + rhazim(0,4) + rhazim(0,5) - 6.28318530717959 rho(0) <= 0
 rhazim_sum(0)__ge: + rhazim(0,1) + rhazim(0,3) + rhazim(0,4) + rhazim(0,5) - 6.28318530717959 rho(0) >= 0
 rhazim_sum(1)__le: + rhazim(1,3) + rhazim(1,5) + rhazim(1,6) + rhazim(1,7) - 6.28318530717959 rho(1) <= 0
 rhazim_sum(1)__ge: + rhazim(1,3) + rhazim(1,5) + rhazim(1,6) + rhazim(1,7) - 6.28318530717959 rho(1) >= 0
 rhazim_sum(2)__le: + rhazim(2,2) + rhazim(2,3) + rhazim(2,6) + rhazim(2,20) - 6.28318530717959 rho(2) <= 0
 rhazim_sum(2)__ge: + rhazim(2,2) + rhazim(2,3) + rhazim(2,6) + rhazim(2,20) - 6.28318530717959 rho(2) >= 0
 rhazim_sum(3)__le: + rhazim(3,0) + rhazim(3,3) + rhazim(3,4) + rhazim(3,20) - 6.28318530717959 rho(3) <= 0
 rhazim_sum(3)__ge: + rhazim(3,0) + rhazim(3,3) + rhazim(3,4) + rhazim(3,20) - 6.28318530717959 rho(3) >= 0
 rhazim_sum(4)__le: + rhazim(4,0) + rhazim(4,4) + rhazim(4,10) + rhazim(4,11) - 6.28318530717959 rho(4) <= 0
 rhazim_sum(4)__ge: + rhazim(4,0) + rhazim(4,4) + rhazim(4,10) + rhazim(4,11) - 6.28318530717959 rho(4) >= 0
 rhazim_sum(5)__le: + rhazim(5,1) + rhazim(5,4) + rhazim(5,9) + rhazim(5,10) - 6.28318530717959 rho(5) <= 0
 rhazim_sum(5)__ge: + rhazim(5,1) + rhazim(5,4) + rhazim(5,9) + rhazim(5,10) - 6.28318530717959 rho(5) >= 0
 rhazim_sum(6)__le: + rhazim(6,0) + rhazim(6,2) + rhazim(6,8) + rhazim(6,20) - 6.28318530717959 rho(6) <= 0
 rhazim_sum(6)__ge: + rhazim(6,0) + rhazim(6,2) + rhazim(6,8) + rhazim(6,20) - 6.28318530717959 rho(6) >= 0
 rhazim_sum(7)__le: + rhazim(7,0) + rhazim(7,8) + rhazim(7,11) + rhazim(7,17) + rhazim(7,18) - 6.28318530717959 rho(7) <= 0
 rhazim_sum(7)__ge: + rhazim(7,0) + rhazim(7,8) + rhazim(7,11) + rhazim(7,17) + rhazim(7,18) - 6.28318530717959 rho(7) >= 0
 rhazim_sum(8)__le: + rhazim(8,1) + rhazim(8,5) + rhazim(8,7) + rhazim(8,13) + rhazim(8,14) - 6.28318530717959 rho(8) <= 0
 rhazim_sum(8)__ge: + rhazim(8,1) + rhazim(8,5) + rhazim(8,7) + rhazim(8,13) + rhazim(8,14) - 6.28318530717959 rho(8) >= 0
 rhazim_sum(9)__le: + rhazim(9,1) + rhazim(9,9) + rhazim(9,14) + rhazim(9,15) + rhazim(9,16) - 6.28318530717959 rho(9) <= 0
 rhazim_sum(9)__ge: + rhazim(9,1) + rhazim(9,9) + rhazim(9,14) + rhazim(9,15) + rhazim(9,16) - 6.28318530717959 rho(9) >= 0
 rhazim_sum(10)__le: + rhazim(10,2) + rhazim(10,6) + rhazim(10,7) + rhazim(10,12) + rhazim(10,13) - 6.28318530717959 rho(10) <= 0
 rhazim_sum(10)__ge: + rhazim(10,2) + rhazim(10,6) + rhazim(10,7) + rhazim(10,12) + rhazim(10,13) - 6.28318530717959 rho(10) >= 0
 rhazim_sum(11)__le: + rhazim(11,2) + rhazim(11,8) + rhazim(11,12) + rhazim(11,18) + rhazim(11,19) - 6.28318530717959 rho(11) <= 0
 rhazim_sum(11)__ge: + rhazim(11,2) + rhazim(11,8) + rhazim(11,12) + rhazim(11,18) + rhazim(11,19) - 6.28318530717959 rho(11) >= 0
 rhazim_sum(12)__le: + rhazim(12,9) + rhazim(12,10) + rhazim(12,11) + rhazim(12,16) + rhazim(12,17) - 6.28318530717959 rho(12) <= 0
 rhazim_sum(12)__ge: + rhazim(12,9) + rhazim(12,10) + rhazim(12,11) + rhazim(12,16) + rhazim(12,17) - 6.28318530717959 rho(12) >= 0
 rhazim_sum(13)__le: + rhazim(13,12) + rhazim(13,13) + rhazim(13,14) + rhazim(13,15) + rhazim(13,19) - 6.28318530717959 rho(13) <= 0
 rhazim_sum(13)__ge: + rhazim(13,12) + rhazim(13,13) + rhazim(13,14) + rhazim(13,15) + rhazim(13,19) - 6.28318530717959 rho(13) >= 0
 rhazim_sum(14)__le: + rhazim(14,15) + rhazim(14,16) + rhazim(14,17) + rhazim(14,18) + rhazim(14,19) - 6.28318530717959 rho(14) <= 0
 rhazim_sum(14)__ge: + rhazim(14,15) + rhazim(14,16) + rhazim(14,17) + rhazim(14,18) + rhazim(14,19) - 6.28318530717959 rho(14) >= 0
 sol_sum(0)__le: + azim(3,0) + azim(4,0) + azim(6,0) + azim(7,0) - sol(0) <= 6.28318530717959
 sol_sum(0)__ge: + azim(3,0) + azim(4,0) + azim(6,0) + azim(7,0) - sol(0) >= 6.28318530717959
 sol_sum(1)__le: + azim(0,1) + azim(5,1) + azim(8,1) + azim(9,1) - sol(1) <= 6.28318530717959
 sol_sum(1)__ge: + azim(0,1) + azim(5,1) + azim(8,1) + azim(9,1) - sol(1) >= 6.28318530717959
 sol_sum(2)__le: + azim(2,2) + azim(6,2) + azim(10,2) + azim(11,2) - sol(2) <= 6.28318530717959
 sol_sum(2)__ge: + azim(2,2) + azim(6,2) + azim(10,2) + azim(11,2) - sol(2) >= 6.28318530717959
 sol_sum(3)__le: + azim(0,3) + azim(1,3) + azim(2,3) + azim(3,3) - sol(3) <= 6.28318530717959
 sol_sum(3)__ge: + azim(0,3) + azim(1,3) + azim(2,3) + azim(3,3) - sol(3) >= 6.28318530717959
 sol_sum(4)__le: + azim(0,4) + azim(3,4) + azim(4,4) + azim(5,4) - sol(4) <= 6.28318530717959
 sol_sum(4)__ge: + azim(0,4) + azim(3,4) + azim(4,4) + azim(5,4) - sol(4) >= 6.28318530717959
 sol_sum(5)__le: + azim(0,5) + azim(1,5) + azim(8,5) - sol(5) <= 3.14159265358979
 sol_sum(5)__ge: + azim(0,5) + azim(1,5) + azim(8,5) - sol(5) >= 3.14159265358979
 sol_sum(6)__le: + azim(1,6) + azim(2,6) + azim(10,6) - sol(6) <= 3.14159265358979
 sol_sum(6)__ge: + azim(1,6) + azim(2,6) + azim(10,6) - sol(6) >= 3.14159265358979
 sol_sum(7)__le: + azim(1,7) + azim(8,7) + azim(10,7) - sol(7) <= 3.14159265358979
 sol_sum(7)__ge: + azim(1,7) + azim(8,7) + azim(10,7) - sol(7) >= 3.14159265358979
 sol_sum(8)__le: + azim(6,8) + azim(7,8) + azim(11,8) - sol(8) <= 3.14159265358979
 sol_sum(8)__ge: + azim(6,8) + azim(7,8) + azim(11,8) - sol(8) >= 3.14159265358979
 sol_sum(9)__le: + azim(5,9) + azim(9,9) + azim(12,9) - sol(9) <= 3.14159265358979
 sol_sum(9)__ge: + azim(5,9) + azim(9,9) + azim(12,9) - sol(9) >= 3.14159265358979
 sol_sum(10)__le: + azim(4,10) + azim(5,10) + azim(12,10) - sol(10) <= 3.14159265358979
 sol_sum(10)__ge: + azim(4,10) + azim(5,10) + azim(12,10) - sol(10) >= 3.14159265358979
 sol_sum(11)__le: + azim(4,11) + azim(7,11) + azim(12,11) - sol(11) <= 3.14159265358979
 sol_sum(11)__ge: + azim(4,11) + azim(7,11) + azim(12,11) - sol(11) >= 3.14159265358979
 sol_sum(12)__le: + azim(10,12) + azim(11,12) + azim(13,12) - sol(12) <= 3.14159265358979
 sol_sum(12)__ge: + azim(10,12) + azim(11,12) + azim(13,12) - sol(12) >= 3.14159265358979
 sol_sum(13)__le: + azim(8,13) + azim(10,13) + azim(13,13) - sol(13) <= 3.14159265358979
 sol_sum(13)__ge: + azim(8,13) + azim(10,13) + azim(13,13) - sol(13) >= 3.14159265358979
 sol_sum(14)__le: + azim(8,14) + azim(9,14) + azim(13,14) - sol(14) <= 3.14159265358979
 sol_sum(14)__ge: + azim(8,14) + azim(9,14) + azim(13,14) - sol(14) >= 3.14159265358979
 sol_sum(15)__le: + azim(9,15) + azim(13,15) + azim(14,15) - sol(15) <= 3.14159265358979
 sol_sum(15)__ge: + azim(9,15) + azim(13,15) + azim(14,15) - sol(15) >= 3.14159265358979
 sol_sum(16)__le: + azim(9,16) + azim(12,16) + azim(14,16) - sol(16) <= 3.14159265358979
 sol_sum(16)__ge: + azim(9,16) + azim(12,16) + azim(14,16) - sol(16) >= 3.14159265358979
 sol_sum(17)__le: + azim(7,17) + azim(12,17) + azim(14,17) - sol(17) <= 3.14159265358979
 sol_sum(17)__ge: + azim(7,17) + azim(12,17) + azim(14,17) - sol(17) >= 3.14159265358979
 sol_sum(18)__le: + azim(7,18) + azim(11,18) + azim(14,18) - sol(18) <= 3.14159265358979
 sol_sum(18)__ge: + azim(7,18) + azim(11,18) + azim(14,18) - sol(18) >= 3.14159265358979
 sol_sum(19)__le: + azim(11,19) + azim(13,19) + azim(14,19) - sol(19) <= 3.14159265358979
 sol_sum(19)__ge: + azim(11,19) + azim(13,19) + azim(14,19) - sol(19) >= 3.14159265358979
 sol_sum(20)__le: + azim(2,20) + azim(3,20) + azim(6,20) - sol(20) <= 3.14159265358979
 sol_sum(20)__ge: + azim(2,20) + azim(3,20) + azim(6,20) - sol(20) >= 3.14159265358979
 tau_sum(0)__le: - tau(0) + rhazim(3,0) + rhazim(4,0) + rhazim(6,0) + rhazim(7,0) <= 7.38575650404465
 tau_sum(0)__ge: - tau(0) + rhazim(3,0) + rhazim(4,0) + rhazim(6,0) + rhazim(7,0) >= 7.38575650404465
 tau_sum(1)__le: - tau(1) + rhazim(0,1) + rhazim(5,1) + rhazim(8,1) + rhazim(9,1) <= 7.38575650404465
 tau_sum(1)__ge: - tau(1) + rhazim(0,1) + rhazim(5,1) + rhazim(8,1) + rhazim(9,1) >= 7.38575650404465
 tau_sum(2)__le: - tau(2) + rhazim(2,2) + rhazim(6,2) + rhazim(10,2) + rhazim(11,2) <= 7.38575650404465
 tau_sum(2)__ge: - tau(2) + rhazim(2,2) + rhazim(6,2) + rhazim(10,2) + rhazim(11,2) >= 7.38575650404465
 tau_sum(3)__le: - tau(3) + rhazim(0,3) + rhazim(1,3) + rhazim(2,3) + rhazim(3,3) <= 7.38575650404465
 tau_sum(3)__ge: - tau(3) + rhazim(0,3) + rhazim(1,3) + rhazim(2,3) + rhazim(3,3) >= 7.38575650404465
 tau_sum(4)__le: - tau(4) + rhazim(0,4) + rhazim(3,4) + rhazim(4,4) + rhazim(5,4) <= 7.38575650404465
 tau_sum(4)__ge: - tau(4) + rhazim(0,4) + rhazim(3,4) + rhazim(4,4) + rhazim(5,4) >= 7.38575650404465
 tau_sum(5)__le: - tau(5) + rhazim(0,5) + rhazim(1,5) + rhazim(8,5) <= 3.69287825202232
 tau_sum(5)__ge: - tau(5) + rhazim(0,5) + rhazim(1,5) + rhazim(8,5) >= 3.69287825202232
 tau_sum(6)__le: - tau(6) + rhazim(1,6) + rhazim(2,6) + rhazim(10,6) <= 3.69287825202232
 tau_sum(6)__ge: - tau(6) + rhazim(1,6) + rhazim(2,6) + rhazim(10,6) >= 3.69287825202232
 tau_sum(7)__le: - tau(7) + rhazim(1,7) + rhazim(8,7) + rhazim(10,7) <= 3.69287825202232
 tau_sum(7)__ge: - tau(7) + rhazim(1,7) + rhazim(8,7) + rhazim(10,7) >= 3.69287825202232
 tau_sum(8)__le: - tau(8) + rhazim(6,8) + rhazim(7,8) + rhazim(11,8) <= 3.69287825202232
 tau_sum(8)__ge: - tau(8) + rhazim(6,8) + rhazim(7,8) + rhazim(11,8) >= 3.69287825202232
 tau_sum(9)__le: - tau(9) + rhazim(5,9) + rhazim(9,9) + rhazim(12,9) <= 3.69287825202232
 tau_sum(9)__ge: - tau(9) + rhazim(5,9) + rhazim(9,9) + rhazim(12,9) >= 3.69287825202232
 tau_sum(10)__le: - tau(10) + rhazim(4,10) + rhazim(5,10) + rhazim(12,10) <= 3.69287825202232
 tau_sum(10)__ge: - tau(10) + rhazim(4,10) + rhazim(5,10) + rhazim(12,10) >= 3.69287825202232
 tau_sum(11)__le: - tau(11) + rhazim(4,11) + rhazim(7,11) + rhazim(12,11) <= 3.69287825202232
 tau_sum(11)__ge: - tau(11) + rhazim(4,11) + rhazim(7,11) + rhazim(12,11) >= 3.69287825202232
 tau_sum(12)__le: - tau(12) + rhazim(10,12) + rhazim(11,12) + rhazim(13,12) <= 3.69287825202232
 tau_sum(12)__ge: - tau(12) + rhazim(10,12) + rhazim(11,12) + rhazim(13,12) >= 3.69287825202232
 tau_sum(13)__le: - tau(13) + rhazim(8,13) + rhazim(10,13) + rhazim(13,13) <= 3.69287825202232
 tau_sum(13)__ge: - tau(13) + rhazim(8,13) + rhazim(10,13) + rhazim(13,13) >= 3.69287825202232
 tau_sum(14)__le: - tau(14) + rhazim(8,14) + rhazim(9,14) + rhazim(13,14) <= 3.69287825202232
 tau_sum(14)__ge: - tau(14) + rhazim(8,14) + rhazim(9,14) + rhazim(13,14) >= 3.69287825202232
 tau_sum(15)__le: - tau(15) + rhazim(9,15) + rhazim(13,15) + rhazim(14,15) <= 3.69287825202232
 tau_sum(15)__ge: - tau(15) + rhazim(9,15) + rhazim(13,15) + rhazim(14,15) >= 3.69287825202232
 tau_sum(16)__le: - tau(16) + rhazim(9,16) + rhazim(12,16) + rhazim(14,16) <= 3.69287825202232
 tau_sum(16)__ge: - tau(16) + rhazim(9,16) + rhazim(12,16) + rhazim(14,16) >= 3.69287825202232
 tau_sum(17)__le: - tau(17) + rhazim(7,17) + rhazim(12,17) + rhazim(14,17) <= 3.69287825202232
 tau_sum(17)__ge: - tau(17) + rhazim(7,17) + rhazim(12,17) + rhazim(14,17) >= 3.69287825202232
 tau_sum(18)__le: - tau(18) + rhazim(7,18) + rhazim(11,18) + rhazim(14,18) <= 3.69287825202232
 tau_sum(18)__ge: - tau(18) + rhazim(7,18) + rhazim(11,18) + rhazim(14,18) >= 3.69287825202232
 tau_sum(19)__le: - tau(19) + rhazim(11,19) + rhazim(13,19) + rhazim(14,19) <= 3.69287825202232
 tau_sum(19)__ge: - tau(19) + rhazim(11,19) + rhazim(13,19) + rhazim(14,19) >= 3.69287825202232
 tau_sum(20)__le: - tau(20) + rhazim(2,20) + rhazim(3,20) + rhazim(6,20) <= 3.69287825202232
 tau_sum(20)__ge: - tau(20) + rhazim(2,20) + rhazim(3,20) + rhazim(6,20) >= 3.69287825202232
 ln_def(0)__le: + ln(0) + 1.92307692307692 yn(0) <= 4.84615384615385
 ln_def(0)__ge: + ln(0) + 1.92307692307692 yn(0) >= 4.84615384615385
 ln_def(1)__le: + ln(1) + 1.92307692307692 yn(1) <= 4.84615384615385
 ln_def(1)__ge: + ln(1) + 1.92307692307692 yn(1) >= 4.84615384615385
 ln_def(2)__le: + ln(2) + 1.92307692307692 yn(2) <= 4.84615384615385
 ln_def(2)__ge: + ln(2) + 1.92307692307692 yn(2) >= 4.84615384615385
 ln_def(3)__le: + ln(3) + 1.92307692307692 yn(3) <= 4.84615384615385
 ln_def(3)__ge: + ln(3) + 1.92307692307692 yn(3) >= 4.84615384615385
 ln_def(4)__le: + ln(4) + 1.92307692307692 yn(4) <= 4.84615384615385
 ln_def(4)__ge: + ln(4) + 1.92307692307692 yn(4) >= 4.84615384615385
 ln_def(5)__le: + ln(5) + 1.92307692307692 yn(5) <= 4.84615384615385
 ln_def(5)__ge: + ln(5) + 1.92307692307692 yn(5) >= 4.84615384615385
 ln_def(6)__le: + ln(6) + 1.92307692307692 yn(6) <= 4.84615384615385
 ln_def(6)__ge: + ln(6) + 1.92307692307692 yn(6) >= 4.84615384615385
 ln_def(7)__le: + ln(7) + 1.92307692307692 yn(7) <= 4.84615384615385
 ln_def(7)__ge: + ln(7) + 1.92307692307692 yn(7) >= 4.84615384615385
 ln_def(8)__le: + ln(8) + 1.92307692307692 yn(8) <= 4.84615384615385
 ln_def(8)__ge: + ln(8) + 1.92307692307692 yn(8) >= 4.84615384615385
 ln_def(9)__le: + ln(9) + 1.92307692307692 yn(9) <= 4.84615384615385
 ln_def(9)__ge: + ln(9) + 1.92307692307692 yn(9) >= 4.84615384615385
 ln_def(10)__le: + ln(10) + 1.92307692307692 yn(10) <= 4.84615384615385
 ln_def(10)__ge: + ln(10) + 1.92307692307692 yn(10) >= 4.84615384615385
 ln_def(11)__le: + ln(11) + 1.92307692307692 yn(11) <= 4.84615384615385
 ln_def(11)__ge: + ln(11) + 1.92307692307692 yn(11) >= 4.84615384615385
 ln_def(12)__le: + ln(12) + 1.92307692307692 yn(12) <= 4.84615384615385
 ln_def(12)__ge: + ln(12) + 1.92307692307692 yn(12) >= 4.84615384615385
 ln_def(13)__le: + ln(13) + 1.92307692307692 yn(13) <= 4.84615384615385
 ln_def(13)__ge: + ln(13) + 1.92307692307692 yn(13) >= 4.84615384615385
 ln_def(14)__le: + ln(14) + 1.92307692307692 yn(14) <= 4.84615384615385
 ln_def(14)__ge: + ln(14) + 1.92307692307692 yn(14) >= 4.84615384615385
 rho_def(0)__le: + 0.175479656091822 ln(0) + rho(0) <= 1.17547965609182
 rho_def(0)__ge: + 0.175479656091822 ln(0) + rho(0) >= 1.17547965609182
 rho_def(1)__le: + 0.175479656091822 ln(1) + rho(1) <= 1.17547965609182
 rho_def(1)__ge: + 0.175479656091822 ln(1) + rho(1) >= 1.17547965609182
 rho_def(2)__le: + 0.175479656091822 ln(2) + rho(2) <= 1.17547965609182
 rho_def(2)__ge: + 0.175479656091822 ln(2) + rho(2) >= 1.17547965609182
 rho_def(3)__le: + 0.175479656091822 ln(3) + rho(3) <= 1.17547965609182
 rho_def(3)__ge: + 0.175479656091822 ln(3) + rho(3) >= 1.17547965609182
 rho_def(4)__le: + 0.175479656091822 ln(4) + rho(4) <= 1.17547965609182
 rho_def(4)__ge: + 0.175479656091822 ln(4) + rho(4) >= 1.17547965609182
 rho_def(5)__le: + 0.175479656091822 ln(5) + rho(5) <= 1.17547965609182
 rho_def(5)__ge: + 0.175479656091822 ln(5) + rho(5) >= 1.17547965609182
 rho_def(6)__le: + 0.175479656091822 ln(6) + rho(6) <= 1.17547965609182
 rho_def(6)__ge: + 0.175479656091822 ln(6) + rho(6) >= 1.17547965609182
 rho_def(7)__le: + 0.175479656091822 ln(7) + rho(7) <= 1.17547965609182
 rho_def(7)__ge: + 0.175479656091822 ln(7) + rho(7) >= 1.17547965609182
 rho_def(8)__le: + 0.175479656091822 ln(8) + rho(8) <= 1.17547965609182
 rho_def(8)__ge: + 0.175479656091822 ln(8) + rho(8) >= 1.17547965609182
 rho_def(9)__le: + 0.175479656091822 ln(9) + rho(9) <= 1.17547965609182
 rho_def(9)__ge: + 0.175479656091822 ln(9) + rho(9) >= 1.17547965609182
 rho_def(10)__le: + 0.175479656091822 ln(10) + rho(10) <= 1.17547965609182
 rho_def(10)__ge: + 0.175479656091822 ln(10) + rho(10) >= 1.17547965609182
 rho_def(11)__le: + 0.175479656091822 ln(11) + rho(11) <= 1.17547965609182
 rho_def(11)__ge: + 0.175479656091822 ln(11) + rho(11) >= 1.17547965609182
 rho_def(12)__le: + 0.175479656091822 ln(12) + rho(12) <= 1.17547965609182
 rho_def(12)__ge: + 0.175479656091822 ln(12) + rho(12) >= 1.17547965609182
 rho_def(13)__le: + 0.175479656091822 ln(13) + rho(13) <= 1.17547965609182
 rho_def(13)__ge: + 0.175479656091822 ln(13) + rho(13) >= 1.17547965609182
 rho_def(14)__le: + 0.175479656091822 ln(14) + rho(14) <= 1.17547965609182
 rho_def(14)__ge: + 0.175479656091822 ln(14) + rho(14) >= 1.17547965609182
 edge_sym(3,0,6,20)__le: + ye(3,0) - ye(6,20) <= 0
 edge_sym(3,0,6,20)__ge: + ye(3,0) - ye(6,20) >= 0
 edge_sym(6,0,7,8)__le: + ye(6,0) - ye(7,8) <= 0
 edge_sym(6,0,7,8)__ge: + ye(6,0) - ye(7,8) >= 0
 edge_sym(7,0,4,11)__le: + ye(7,0) - ye(4,11) <= 0
 edge_sym(7,0,4,11)__ge: + ye(7,0) - ye(4,11) >= 0
 edge_sym(4,0,3,4)__le: + ye(4,0) - ye(3,4) <= 0
 edge_sym(4,0,3,4)__ge: + ye(4,0) - ye(3,4) >= 0
 edge_sym(0,1,5,4)__le: + ye(0,1) - ye(5,4) <= 0
 edge_sym(0,1,5,4)__ge: + ye(0,1) - ye(5,4) >= 0
 edge_sym(5,1,9,9)__le: + ye(5,1) - ye(9,9) <= 0
 edge_sym(5,1,9,9)__ge: + ye(5,1) - ye(9,9) >= 0
 edge_sym(9,1,8,14)__le: + ye(9,1) - ye(8,14) <= 0
 edge_sym(9,1,8,14)__ge: + ye(9,1) - ye(8,14) >= 0
 edge_sym(8,1,0,5)__le: + ye(8,1) - ye(0,5) <= 0
 edge_sym(8,1,0,5)__ge: + ye(8,1) - ye(0,5) >= 0
 edge_sym(2,2,10,6)__le: + ye(2,2) - ye(10,6) <= 0
 edge_sym(2,2,10,6)__ge: + ye(2,2) - ye(10,6) >= 0
 edge_sym(10,2,11,12)__le: + ye(10,2) - ye(11,12) <= 0
 edge_sym(10,2,11,12)__ge: + ye(10,2) - ye(11,12) >= 0
 edge_sym(11,2,6,8)__le: + ye(11,2) - ye(6,8) <= 0
 edge_sym(11,2,6,8)__ge: + ye(11,2) - ye(6,8) >= 0
 edge_sym(6,2,2,20)__le: + ye(6,2) - ye(2,20) <= 0
 edge_sym(6,2,2,20)__ge: + ye(6,2) - ye(2,20) >= 0
 edge_sym(1,3,2,6)__le: + ye(1,3) - ye(2,6) <= 0
 edge_sym(1,3,2,6)__ge: + ye(1,3) - ye(2,6) >= 0
 edge_sym(2,3,3,20)__le: + ye(2,3) - ye(3,20) <= 0
 edge_sym(2,3,3,20)__ge: + ye(2,3) - ye(3,20) >= 0
 edge_sym(3,3,0,4)__le: + ye(3,3) - ye(0,4) <= 0
 edge_sym(3,3,0,4)__ge: + ye(3,3) - ye(0,4) >= 0
 edge_sym(0,3,1,5)__le: + ye(0,3) - ye(1,5) <= 0
 edge_sym(0,3,1,5)__ge: + ye(0,3) - ye(1,5) >= 0
 edge_sym(3,4,4,0)__le: - ye(4,0) + ye(3,4) <= 0
 edge_sym(3,4,4,0)__ge: - ye(4,0) + ye(3,4) >= 0
 edge_sym(4,4,5,10)__le: + ye(4,4) - ye(5,10) <= 0
 edge_sym(4,4,5,10)__ge: + ye(4,4) - ye(5,10) >= 0
 edge_sym(5,4,0,1)__le: - ye(0,1) + ye(5,4) <= 0
 edge_sym(5,4,0,1)__ge: - ye(0,1) + ye(5,4) >= 0
 edge_sym(0,4,3,3)__le: - ye(3,3) + ye(0,4) <= 0
 edge_sym(0,4,3,3)__ge: - ye(3,3) + ye(0,4) >= 0
 edge_sym(0,5,8,1)__le: - ye(8,1) + ye(0,5) <= 0
 edge_sym(0,5,8,1)__ge: - ye(8,1) + ye(0,5) >= 0
 edge_sym(8,5,1,7)__le: + ye(8,5) - ye(1,7) <= 0
 edge_sym(8,5,1,7)__ge: + ye(8,5) - ye(1,7) >= 0
 edge_sym(1,5,0,3)__le: - ye(0,3) + ye(1,5) <= 0
 edge_sym(1,5,0,3)__ge: - ye(0,3) + ye(1,5) >= 0
 edge_sym(2,6,1,3)__le: - ye(1,3) + ye(2,6) <= 0
 edge_sym(2,6,1,3)__ge: - ye(1,3) + ye(2,6) >= 0
 edge_sym(1,6,10,7)__le: + ye(1,6) - ye(10,7) <= 0
 edge_sym(1,6,10,7)__ge: + ye(1,6) - ye(10,7) >= 0
 edge_sym(10,6,2,2)__le: - ye(2,2) + ye(10,6) <= 0
 edge_sym(10,6,2,2)__ge: - ye(2,2) + ye(10,6) >= 0
 edge_sym(1,7,8,5)__le: - ye(8,5) + ye(1,7) <= 0
 edge_sym(1,7,8,5)__ge: - ye(8,5) + ye(1,7) >= 0
 edge_sym(8,7,10,13)__le: + ye(8,7) - ye(10,13) <= 0
 edge_sym(8,7,10,13)__ge: + ye(8,7) - ye(10,13) >= 0
 edge_sym(10,7,1,6)__le: - ye(1,6) + ye(10,7) <= 0
 edge_sym(10,7,1,6)__ge: - ye(1,6) + ye(10,7) >= 0
 edge_sym(6,8,11,2)__le: - ye(11,2) + ye(6,8) <= 0
 edge_sym(6,8,11,2)__ge: - ye(11,2) + ye(6,8) >= 0
 edge_sym(11,8,7,18)__le: + ye(11,8) - ye(7,18) <= 0
 edge_sym(11,8,7,18)__ge: + ye(11,8) - ye(7,18) >= 0
 edge_sym(7,8,6,0)__le: - ye(6,0) + ye(7,8) <= 0
 edge_sym(7,8,6,0)__ge: - ye(6,0) + ye(7,8) >= 0
 edge_sym(5,9,12,10)__le: + ye(5,9) - ye(12,10) <= 0
 edge_sym(5,9,12,10)__ge: + ye(5,9) - ye(12,10) >= 0
 edge_sym(12,9,9,16)__le: + ye(12,9) - ye(9,16) <= 0
 edge_sym(12,9,9,16)__ge: + ye(12,9) - ye(9,16) >= 0
 edge_sym(9,9,5,1)__le: - ye(5,1) + ye(9,9) <= 0
 edge_sym(9,9,5,1)__ge: - ye(5,1) + ye(9,9) >= 0
 edge_sym(5,10,4,4)__le: - ye(4,4) + ye(5,10) <= 0
 edge_sym(5,10,4,4)__ge: - ye(4,4) + ye(5,10) >= 0
 edge_sym(4,10,12,11)__le: + ye(4,10) - ye(12,11) <= 0
 edge_sym(4,10,12,11)__ge: + ye(4,10) - ye(12,11) >= 0
 edge_sym(12,10,5,9)__le: - ye(5,9) + ye(12,10) <= 0
 edge_sym(12,10,5,9)__ge: - ye(5,9) + ye(12,10) >= 0
 edge_sym(4,11,7,0)__le: - ye(7,0) + ye(4,11) <= 0
 edge_sym(4,11,7,0)__ge: - ye(7,0) + ye(4,11) >= 0
 edge_sym(7,11,12,17)__le: + ye(7,11) - ye(12,17) <= 0
 edge_sym(7,11,12,17)__ge: + ye(7,11) - ye(12,17) >= 0
 edge_sym(12,11,4,10)__le: - ye(4,10) + ye(12,11) <= 0
 edge_sym(12,11,4,10)__ge: - ye(4,10) + ye(12,11) >= 0
 edge_sym(10,12,13,13)__le: + ye(10,12) - ye(13,13) <= 0
 edge_sym(10,12,13,13)__ge: + ye(10,12) - ye(13,13) >= 0
 edge_sym(13,12,11,19)__le: + ye(13,12) - ye(11,19) <= 0
 edge_sym(13,12,11,19)__ge: + ye(13,12) - ye(11,19) >= 0
 edge_sym(11,12,10,2)__le: - ye(10,2) + ye(11,12) <= 0
 edge_sym(11,12,10,2)__ge: - ye(10,2) + ye(11,12) >= 0
 edge_sym(10,13,8,7)__le: - ye(8,7) + ye(10,13) <= 0
 edge_sym(10,13,8,7)__ge: - ye(8,7) + ye(10,13) >= 0
 edge_sym(8,13,13,14)__le: + ye(8,13) - ye(13,14) <= 0
 edge_sym(8,13,13,14)__ge: + ye(8,13) - ye(13,14) >= 0
 edge_sym(13,13,10,12)__le: - ye(10,12) + ye(13,13) <= 0
 edge_sym(13,13,10,12)__ge: - ye(10,12) + ye(13,13) >= 0
 edge_sym(8,14,9,1)__le: - ye(9,1) + ye(8,14) <= 0
 edge_sym(8,14,9,1)__ge: - ye(9,1) + ye(8,14) >= 0
 edge_sym(9,14,13,15)__le: + ye(9,14) - ye(13,15) <= 0
 edge_sym(9,14,13,15)__ge: + ye(9,14) - ye(13,15) >= 0
 edge_sym(13,14,8,13)__le: - ye(8,13) + ye(13,14) <= 0
 edge_sym(13,14,8,13)__ge: - ye(8,13) + ye(13,14) >= 0
 edge_sym(9,15,14,16)__le: + ye(9,15) - ye(14,16) <= 0
 edge_sym(9,15,14,16)__ge: + ye(9,15) - ye(14,16) >= 0
 edge_sym(14,15,13,19)__le: + ye(14,15) - ye(13,19) <= 0
 edge_sym(14,15,13,19)__ge: + ye(14,15) - ye(13,19) >= 0
 edge_sym(13,15,9,14)__le: - ye(9,14) + ye(13,15) <= 0
 edge_sym(13,15,9,14)__ge: - ye(9,14) + ye(13,15) >= 0
 edge_sym(9,16,12,9)__le: - ye(12,9) + ye(9,16) <= 0
 edge_sym(9,16,12,9)__ge: - ye(12,9) + ye(9,16) >= 0
 edge_sym(12,16,14,17)__le: + ye(12,16) - ye(14,17) <= 0
 edge_sym(12,16,14,17)__ge: + ye(12,16) - ye(14,17) >= 0
 edge_sym(14,16,9,15)__le: - ye(9,15) + ye(14,16) <= 0
 edge_sym(14,16,9,15)__ge: - ye(9,15) + ye(14,16) >= 0
 edge_sym(12,17,7,11)__le: - ye(7,11) + ye(12,17) <= 0
 edge_sym(12,17,7,11)__ge: - ye(7,11) + ye(12,17) >= 0
 edge_sym(7,17,14,18)__le: + ye(7,17) - ye(14,18) <= 0
 edge_sym(7,17,14,18)__ge: + ye(7,17) - ye(14,18) >= 0
 edge_sym(14,17,12,16)__le: - ye(12,16) + ye(14,17) <= 0
 edge_sym(14,17,12,16)__ge: - ye(12,16) + ye(14,17) >= 0
 edge_sym(7,18,11,8)__le: - ye(11,8) + ye(7,18) <= 0
 edge_sym(7,18,11,8)__ge: - ye(11,8) + ye(7,18) >= 0
 edge_sym(11,18,14,19)__le: + ye(11,18) - ye(14,19) <= 0
 edge_sym(11,18,14,19)__ge: + ye(11,18) - ye(14,19) >= 0
 edge_sym(14,18,7,17)__le: - ye(7,17) + ye(14,18) <= 0
 edge_sym(14,18,7,17)__ge: - ye(7,17) + ye(14,18) >= 0
 edge_sym(13,19,14,15)__le: - ye(14,15) + ye(13,19) <= 0
 edge_sym(13,19,14,15)__ge: - ye(14,15) + ye(13,19) >= 0
 edge_sym(14,19,11,18)__le: - ye(11,18) + ye(14,19) <= 0
 edge_sym(14,19,11,18)__ge: - ye(11,18) + ye(14,19) >= 0
 edge_sym(11,19,13,12)__le: - ye(13,12) + ye(11,19) <= 0
 edge_sym(11,19,13,12)__ge: - ye(13,12) + ye(11,19) >= 0
 edge_sym(3,20,2,3)__le: - ye(2,3) + ye(3,20) <= 0
 edge_sym(3,20,2,3)__ge: - ye(2,3) + ye(3,20) >= 0
 edge_sym(2,20,6,2)__le: - ye(6,2) + ye(2,20) <= 0
 edge_sym(2,20,6,2)__ge: - ye(6,2) + ye(2,20) >= 0
 edge_sym(6,20,3,0)__le: - ye(3,0) + ye(6,20) <= 0
 edge_sym(6,20,3,0)__ge: - ye(3,0) + ye(6,20) >= 0
 y1_def(4,3,6,0)__le: - yn(3) + y1(3,0) <= 0
 y1_def(4,3,6,0)__ge: - yn(3) + y1(3,0) >= 0
 y1_def(3,6,7,0)__le: - yn(6) + y1(6,0) <= 0
 y1_def(3,6,7,0)__ge: - yn(6) + y1(6,0) >= 0
 y1_def(6,7,4,0)__le: - yn(7) + y1(7,0) <= 0
 y1_def(6,7,4,0)__ge: - yn(7) + y1(7,0) >= 0
 y1_def(7,4,3,0)__le: - yn(4) + y1(4,0) <= 0
 y1_def(7,4,3,0)__ge: - yn(4) + y1(4,0) >= 0
 y1_def(8,0,5,1)__le: - yn(0) + y1(0,1) <= 0
 y1_def(8,0,5,1)__ge: - yn(0) + y1(0,1) >= 0
 y1_def(0,5,9,1)__le: - yn(5) + y1(5,1) <= 0
 y1_def(0,5,9,1)__ge: - yn(5) + y1(5,1) >= 0
 y1_def(5,9,8,1)__le: - yn(9) + y1(9,1) <= 0
 y1_def(5,9,8,1)__ge: - yn(9) + y1(9,1) >= 0
 y1_def(9,8,0,1)__le: - yn(8) + y1(8,1) <= 0
 y1_def(9,8,0,1)__ge: - yn(8) + y1(8,1) >= 0
 y1_def(6,2,10,2)__le: - yn(2) + y1(2,2) <= 0
 y1_def(6,2,10,2)__ge: - yn(2) + y1(2,2) >= 0
 y1_def(2,10,11,2)__le: - yn(10) + y1(10,2) <= 0
 y1_def(2,10,11,2)__ge: - yn(10) + y1(10,2) >= 0
 y1_def(10,11,6,2)__le: - yn(11) + y1(11,2) <= 0
 y1_def(10,11,6,2)__ge: - yn(11) + y1(11,2) >= 0
 y1_def(11,6,2,2)__le: - yn(6) + y1(6,2) <= 0
 y1_def(11,6,2,2)__ge: - yn(6) + y1(6,2) >= 0
 y1_def(0,1,2,3)__le: - yn(1) + y1(1,3) <= 0
 y1_def(0,1,2,3)__ge: - yn(1) + y1(1,3) >= 0
 y1_def(1,2,3,3)__le: - yn(2) + y1(2,3) <= 0
 y1_def(1,2,3,3)__ge: - yn(2) + y1(2,3) >= 0
 y1_def(2,3,0,3)__le: - yn(3) + y1(3,3) <= 0
 y1_def(2,3,0,3)__ge: - yn(3) + y1(3,3) >= 0
 y1_def(3,0,1,3)__le: - yn(0) + y1(0,3) <= 0
 y1_def(3,0,1,3)__ge: - yn(0) + y1(0,3) >= 0
 y1_def(0,3,4,4)__le: - yn(3) + y1(3,4) <= 0
 y1_def(0,3,4,4)__ge: - yn(3) + y1(3,4) >= 0
 y1_def(3,4,5,4)__le: - yn(4) + y1(4,4) <= 0
 y1_def(3,4,5,4)__ge: - yn(4) + y1(4,4) >= 0
 y1_def(4,5,0,4)__le: - yn(5) + y1(5,4) <= 0
 y1_def(4,5,0,4)__ge: - yn(5) + y1(5,4) >= 0
 y1_def(5,0,3,4)__le: - yn(0) + y1(0,4) <= 0
 y1_def(5,0,3,4)__ge: - yn(0) + y1(0,4) >= 0
 y1_def(1,0,8,5)__le: - yn(0) + y1(0,5) <= 0
 y1_def(1,0,8,5)__ge: - yn(0) + y1(0,5) >= 0
 y1_def(0,8,1,5)__le: - yn(8) + y1(8,5) <= 0
 y1_def(0,8,1,5)__ge: - yn(8) + y1(8,5) >= 0
 y1_def(8,1,0,5)__le: - yn(1) + y1(1,5) <= 0
 y1_def(8,1,0,5)__ge: - yn(1) + y1(1,5) >= 0
 y1_def(10,2,1,6)__le: - yn(2) + y1(2,6) <= 0
 y1_def(10,2,1,6)__ge: - yn(2) + y1(2,6) >= 0
 y1_def(2,1,10,6)__le: - yn(1) + y1(1,6) <= 0
 y1_def(2,1,10,6)__ge: - yn(1) + y1(1,6) >= 0
 y1_def(1,10,2,6)__le: - yn(10) + y1(10,6) <= 0
 y1_def(1,10,2,6)__ge: - yn(10) + y1(10,6) >= 0
 y1_def(10,1,8,7)__le: - yn(1) + y1(1,7) <= 0
 y1_def(10,1,8,7)__ge: - yn(1) + y1(1,7) >= 0
 y1_def(1,8,10,7)__le: - yn(8) + y1(8,7) <= 0
 y1_def(1,8,10,7)__ge: - yn(8) + y1(8,7) >= 0
 y1_def(8,10,1,7)__le: - yn(10) + y1(10,7) <= 0
 y1_def(8,10,1,7)__ge: - yn(10) + y1(10,7) >= 0
 y1_def(7,6,11,8)__le: - yn(6) + y1(6,8) <= 0
 y1_def(7,6,11,8)__ge: - yn(6) + y1(6,8) >= 0
 y1_def(6,11,7,8)__le: - yn(11) + y1(11,8) <= 0
 y1_def(6,11,7,8)__ge: - yn(11) + y1(11,8) >= 0
 y1_def(11,7,6,8)__le: - yn(7) + y1(7,8) <= 0
 y1_def(11,7,6,8)__ge: - yn(7) + y1(7,8) >= 0
 y1_def(9,5,12,9)__le: - yn(5) + y1(5,9) <= 0
 y1_def(9,5,12,9)__ge: - yn(5) + y1(5,9) >= 0
 y1_def(5,12,9,9)__le: - yn(12) + y1(12,9) <= 0
 y1_def(5,12,9,9)__ge: - yn(12) + y1(12,9) >= 0
 y1_def(12,9,5,9)__le: - yn(9) + y1(9,9) <= 0
 y1_def(12,9,5,9)__ge: - yn(9) + y1(9,9) >= 0
 y1_def(12,5,4,10)__le: - yn(5) + y1(5,10) <= 0
 y1_def(12,5,4,10)__ge: - yn(5) + y1(5,10) >= 0
 y1_def(5,4,12,10)__le: - yn(4) + y1(4,10) <= 0
 y1_def(5,4,12,10)__ge: - yn(4) + y1(4,10) >= 0
 y1_def(4,12,5,10)__le: - yn(12) + y1(12,10) <= 0
 y1_def(4,12,5,10)__ge: - yn(12) + y1(12,10) >= 0
 y1_def(12,4,7,11)__le: - yn(4) + y1(4,11) <= 0
 y1_def(12,4,7,11)__ge: - yn(4) + y1(4,11) >= 0
 y1_def(4,7,12,11)__le: - yn(7) + y1(7,11) <= 0
 y1_def(4,7,12,11)__ge: - yn(7) + y1(7,11) >= 0
 y1_def(7,12,4,11)__le: - yn(12) + y1(12,11) <= 0
 y1_def(7,12,4,11)__ge: - yn(12) + y1(12,11) >= 0
 y1_def(11,10,13,12)__le: - yn(10) + y1(10,12) <= 0
 y1_def(11,10,13,12)__ge: - yn(10) + y1(10,12) >= 0
 y1_def(10,13,11,12)__le: - yn(13) + y1(13,12) <= 0
 y1_def(10,13,11,12)__ge: - yn(13) + y1(13,12) >= 0
 y1_def(13,11,10,12)__le: - yn(11) + y1(11,12) <= 0
 y1_def(13,11,10,12)__ge: - yn(11) + y1(11,12) >= 0
 y1_def(13,10,8,13)__le: - yn(10) + y1(10,13) <= 0
 y1_def(13,10,8,13)__ge: - yn(10) + y1(10,13) >= 0
 y1_def(10,8,13,13)__le: - yn(8) + y1(8,13) <= 0
 y1_def(10,8,13,13)__ge: - yn(8) + y1(8,13) >= 0
 y1_def(8,13,10,13)__le: - yn(13) + y1(13,13) <= 0
 y1_def(8,13,10,13)__ge: - yn(13) + y1(13,13) >= 0
 y1_def(13,8,9,14)__le: - yn(8) + y1(8,14) <= 0
 y1_def(13,8,9,14)__ge: - yn(8) + y1(8,14) >= 0
 y1_def(8,9,13,14)__le: - yn(9) + y1(9,14) <= 0
 y1_def(8,9,13,14)__ge: - yn(9) + y1(9,14) >= 0
 y1_def(9,13,8,14)__le: - yn(13) + y1(13,14) <= 0
 y1_def(9,13,8,14)__ge: - yn(13) + y1(13,14) >= 0
 y1_def(13,9,14,15)__le: - yn(9) + y1(9,15) <= 0
 y1_def(13,9,14,15)__ge: - yn(9) + y1(9,15) >= 0
 y1_def(9,14,13,15)__le: - yn(14) + y1(14,15) <= 0
 y1_def(9,14,13,15)__ge: - yn(14) + y1(14,15) >= 0
 y1_def(14,13,9,15)__le: - yn(13) + y1(13,15) <= 0
 y1_def(14,13,9,15)__ge: - yn(13) + y1(13,15) >= 0
 y1_def(14,9,12,16)__le: - yn(9) + y1(9,16) <= 0
 y1_def(14,9,12,16)__ge: - yn(9) + y1(9,16) >= 0
 y1_def(9,12,14,16)__le: - yn(12) + y1(12,16) <= 0
 y1_def(9,12,14,16)__ge: - yn(12) + y1(12,16) >= 0
 y1_def(12,14,9,16)__le: - yn(14) + y1(14,16) <= 0
 y1_def(12,14,9,16)__ge: - yn(14) + y1(14,16) >= 0
 y1_def(14,12,7,17)__le: - yn(12) + y1(12,17) <= 0
 y1_def(14,12,7,17)__ge: - yn(12) + y1(12,17) >= 0
 y1_def(12,7,14,17)__le: - yn(7) + y1(7,17) <= 0
 y1_def(12,7,14,17)__ge: - yn(7) + y1(7,17) >= 0
 y1_def(7,14,12,17)__le: - yn(14) + y1(14,17) <= 0
 y1_def(7,14,12,17)__ge: - yn(14) + y1(14,17) >= 0
 y1_def(14,7,11,18)__le: - yn(7) + y1(7,18) <= 0
 y1_def(14,7,11,18)__ge: - yn(7) + y1(7,18) >= 0
 y1_def(7,11,14,18)__le: - yn(11) + y1(11,18) <= 0
 y1_def(7,11,14,18)__ge: - yn(11) + y1(11,18) >= 0
 y1_def(11,14,7,18)__le: - yn(14) + y1(14,18) <= 0
 y1_def(11,14,7,18)__ge: - yn(14) + y1(14,18) >= 0
 y1_def(11,13,14,19)__le: - yn(13) + y1(13,19) <= 0
 y1_def(11,13,14,19)__ge: - yn(13) + y1(13,19) >= 0
 y1_def(13,14,11,19)__le: - yn(14) + y1(14,19) <= 0
 y1_def(13,14,11,19)__ge: - yn(14) + y1(14,19) >= 0
 y1_def(14,11,13,19)__le: - yn(11) + y1(11,19) <= 0
 y1_def(14,11,13,19)__ge: - yn(11) + y1(11,19) >= 0
 y1_def(6,3,2,20)__le: - yn(3) + y1(3,20) <= 0
 y1_def(6,3,2,20)__ge: - yn(3) + y1(3,20) >= 0
 y1_def(3,2,6,20)__le: - yn(2) + y1(2,20) <= 0
 y1_def(3,2,6,20)__ge: - yn(2) + y1(2,20) >= 0
 y1_def(2,6,3,20)__le: - yn(6) + y1(6,20) <= 0
 y1_def(2,6,3,20)__ge: - yn(6) + y1(6,20) >= 0
 y2_def(4,3,6,0)__le: - yn(6) + y2(3,0) <= 0
 y2_def(4,3,6,0)__ge: - yn(6) + y2(3,0) >= 0
 y2_def(3,6,7,0)__le: - yn(7) + y2(6,0) <= 0
 y2_def(3,6,7,0)__ge: - yn(7) + y2(6,0) >= 0
 y2_def(6,7,4,0)__le: - yn(4) + y2(7,0) <= 0
 y2_def(6,7,4,0)__ge: - yn(4) + y2(7,0) >= 0
 y2_def(7,4,3,0)__le: - yn(3) + y2(4,0) <= 0
 y2_def(7,4,3,0)__ge: - yn(3) + y2(4,0) >= 0
 y2_def(8,0,5,1)__le: - yn(5) + y2(0,1) <= 0
 y2_def(8,0,5,1)__ge: - yn(5) + y2(0,1) >= 0
 y2_def(0,5,9,1)__le: - yn(9) + y2(5,1) <= 0
 y2_def(0,5,9,1)__ge: - yn(9) + y2(5,1) >= 0
 y2_def(5,9,8,1)__le: - yn(8) + y2(9,1) <= 0
 y2_def(5,9,8,1)__ge: - yn(8) + y2(9,1) >= 0
 y2_def(9,8,0,1)__le: - yn(0) + y2(8,1) <= 0
 y2_def(9,8,0,1)__ge: - yn(0) + y2(8,1) >= 0
 y2_def(6,2,10,2)__le: - yn(10) + y2(2,2) <= 0
 y2_def(6,2,10,2)__ge: - yn(10) + y2(2,2) >= 0
 y2_def(2,10,11,2)__le: - yn(11) + y2(10,2) <= 0
 y2_def(2,10,11,2)__ge: - yn(11) + y2(10,2) >= 0
 y2_def(10,11,6,2)__le: - yn(6) + y2(11,2) <= 0
 y2_def(10,11,6,2)__ge: - yn(6) + y2(11,2) >= 0
 y2_def(11,6,2,2)__le: - yn(2) + y2(6,2) <= 0
 y2_def(11,6,2,2)__ge: - yn(2) + y2(6,2) >= 0
 y2_def(0,1,2,3)__le: - yn(2) + y2(1,3) <= 0
 y2_def(0,1,2,3)__ge: - yn(2) + y2(1,3) >= 0
 y2_def(1,2,3,3)__le: - yn(3) + y2(2,3) <= 0
 y2_def(1,2,3,3)__ge: - yn(3) + y2(2,3) >= 0
 y2_def(2,3,0,3)__le: - yn(0) + y2(3,3) <= 0
 y2_def(2,3,0,3)__ge: - yn(0) + y2(3,3) >= 0
 y2_def(3,0,1,3)__le: - yn(1) + y2(0,3) <= 0
 y2_def(3,0,1,3)__ge: - yn(1) + y2(0,3) >= 0
 y2_def(0,3,4,4)__le: - yn(4) + y2(3,4) <= 0
 y2_def(0,3,4,4)__ge: - yn(4) + y2(3,4) >= 0
 y2_def(3,4,5,4)__le: - yn(5) + y2(4,4) <= 0
 y2_def(3,4,5,4)__ge: - yn(5) + y2(4,4) >= 0
 y2_def(4,5,0,4)__le: - yn(0) + y2(5,4) <= 0
 y2_def(4,5,0,4)__ge: - yn(0) + y2(5,4) >= 0
 y2_def(5,0,3,4)__le: - yn(3) + y2(0,4) <= 0
 y2_def(5,0,3,4)__ge: - yn(3) + y2(0,4) >= 0
 y2_def(1,0,8,5)__le: - yn(8) + y2(0,5) <= 0
 y2_def(1,0,8,5)__ge: - yn(8) + y2(0,5) >= 0
 y2_def(0,8,1,5)__le: - yn(1) + y2(8,5) <= 0
 y2_def(0,8,1,5)__ge: - yn(1) + y2(8,5) >= 0
 y2_def(8,1,0,5)__le: - yn(0) + y2(1,5) <= 0
 y2_def(8,1,0,5)__ge: - yn(0) + y2(1,5) >= 0
 y2_def(10,2,1,6)__le: - yn(1) + y2(2,6) <= 0
 y2_def(10,2,1,6)__ge: - yn(1) + y2(2,6) >= 0
 y2_def(2,1,10,6)__le: - yn(10) + y2(1,6) <= 0
 y2_def(2,1,10,6)__ge: - yn(10) + y2(1,6) >= 0
 y2_def(1,10,2,6)__le: - yn(2) + y2(10,6) <= 0
 y2_def(1,10,2,6)__ge: - yn(2) + y2(10,6) >= 0
 y2_def(10,1,8,7)__le: - yn(8) + y2(1,7) <= 0
 y2_def(10,1,8,7)__ge: - yn(8) + y2(1,7) >= 0
 y2_def(1,8,10,7)__le: - yn(10) + y2(8,7) <= 0
 y2_def(1,8,10,7)__ge: - yn(10) + y2(8,7) >= 0
 y2_def(8,10,1,7)__le: - yn(1) + y2(10,7) <= 0
 y2_def(8,10,1,7)__ge: - yn(1) + y2(10,7) >= 0
 y2_def(7,6,11,8)__le: - yn(11) + y2(6,8) <= 0
 y2_def(7,6,11,8)__ge: - yn(11) + y2(6,8) >= 0
 y2_def(6,11,7,8)__le: - yn(7) + y2(11,8) <= 0
 y2_def(6,11,7,8)__ge: - yn(7) + y2(11,8) >= 0
 y2_def(11,7,6,8)__le: - yn(6) + y2(7,8) <= 0
 y2_def(11,7,6,8)__ge: - yn(6) + y2(7,8) >= 0
 y2_def(9,5,12,9)__le: - yn(12) + y2(5,9) <= 0
 y2_def(9,5,12,9)__ge: - yn(12) + y2(5,9) >= 0
 y2_def(5,12,9,9)__le: - yn(9) + y2(12,9) <= 0
 y2_def(5,12,9,9)__ge: - yn(9) + y2(12,9) >= 0
 y2_def(12,9,5,9)__le: - yn(5) + y2(9,9) <= 0
 y2_def(12,9,5,9)__ge: - yn(5) + y2(9,9) >= 0
 y2_def(12,5,4,10)__le: - yn(4) + y2(5,10) <= 0
 y2_def(12,5,4,10)__ge: - yn(4) + y2(5,10) >= 0
 y2_def(5,4,12,10)__le: - yn(12) + y2(4,10) <= 0
 y2_def(5,4,12,10)__ge: - yn(12) + y2(4,10) >= 0
 y2_def(4,12,5,10)__le: - yn(5) + y2(12,10) <= 0
 y2_def(4,12,5,10)__ge: - yn(5) + y2(12,10) >= 0
 y2_def(12,4,7,11)__le: - yn(7) + y2(4,11) <= 0
 y2_def(12,4,7,11)__ge: - yn(7) + y2(4,11) >= 0
 y2_def(4,7,12,11)__le: - yn(12) + y2(7,11) <= 0
 y2_def(4,7,12,11)__ge: - yn(12) + y2(7,11) >= 0
 y2_def(7,12,4,11)__le: - yn(4) + y2(12,11) <= 0
 y2_def(7,12,4,11)__ge: - yn(4) + y2(12,11) >= 0
 y2_def(11,10,13,12)__le: - yn(13) + y2(10,12) <= 0
 y2_def(11,10,13,12)__ge: - yn(13) + y2(10,12) >= 0
 y2_def(10,13,11,12)__le: - yn(11) + y2(13,12) <= 0
 y2_def(10,13,11,12)__ge: - yn(11) + y2(13,12) >= 0
 y2_def(13,11,10,12)__le: - yn(10) + y2(11,12) <= 0
 y2_def(13,11,10,12)__ge: - yn(10) + y2(11,12) >= 0
 y2_def(13,10,8,13)__le: - yn(8) + y2(10,13) <= 0
 y2_def(13,10,8,13)__ge: - yn(8) + y2(10,13) >= 0
 y2_def(10,8,13,13)__le: - yn(13) + y2(8,13) <= 0
 y2_def(10,8,13,13)__ge: - yn(13) + y2(8,13) >= 0
 y2_def(8,13,10,13)__le: - yn(10) + y2(13,13) <= 0
 y2_def(8,13,10,13)__ge: - yn(10) + y2(13,13) >= 0
 y2_def(13,8,9,14)__le: - yn(9) + y2(8,14) <= 0
 y2_def(13,8,9,14)__ge: - yn(9) + y2(8,14) >= 0
 y2_def(8,9,13,14)__le: - yn(13) + y2(9,14) <= 0
 y2_def(8,9,13,14)__ge: - yn(13) + y2(9,14) >= 0
 y2_def(9,13,8,14)__le: - yn(8) + y2(13,14) <= 0
 y2_def(9,13,8,14)__ge: - yn(8) + y2(13,14) >= 0
 y2_def(13,9,14,15)__le: - yn(14) + y2(9,15) <= 0
 y2_def(13,9,14,15)__ge: - yn(14) + y2(9,15) >= 0
 y2_def(9,14,13,15)__le: - yn(13) + y2(14,15) <= 0
 y2_def(9,14,13,15)__ge: - yn(13) + y2(14,15) >= 0
 y2_def(14,13,9,15)__le: - yn(9) + y2(13,15) <= 0
 y2_def(14,13,9,15)__ge: - yn(9) + y2(13,15) >= 0
 y2_def(14,9,12,16)__le: - yn(12) + y2(9,16) <= 0
 y2_def(14,9,12,16)__ge: - yn(12) + y2(9,16) >= 0
 y2_def(9,12,14,16)__le: - yn(14) + y2(12,16) <= 0
 y2_def(9,12,14,16)__ge: - yn(14) + y2(12,16) >= 0
 y2_def(12,14,9,16)__le: - yn(9) + y2(14,16) <= 0
 y2_def(12,14,9,16)__ge: - yn(9) + y2(14,16) >= 0
 y2_def(14,12,7,17)__le: - yn(7) + y2(12,17) <= 0
 y2_def(14,12,7,17)__ge: - yn(7) + y2(12,17) >= 0
 y2_def(12,7,14,17)__le: - yn(14) + y2(7,17) <= 0
 y2_def(12,7,14,17)__ge: - yn(14) + y2(7,17) >= 0
 y2_def(7,14,12,17)__le: - yn(12) + y2(14,17) <= 0
 y2_def(7,14,12,17)__ge: - yn(12) + y2(14,17) >= 0
 y2_def(14,7,11,18)__le: - yn(11) + y2(7,18) <= 0
 y2_def(14,7,11,18)__ge: - yn(11) + y2(7,18) >= 0
 y2_def(7,11,14,18)__le: - yn(14) + y2(11,18) <= 0
 y2_def(7,11,14,18)__ge: - yn(14) + y2(11,18) >= 0
 y2_def(11,14,7,18)__le: - yn(7) + y2(14,18) <= 0
 y2_def(11,14,7,18)__ge: - yn(7) + y2(14,18) >= 0
 y2_def(11,13,14,19)__le: - yn(14) + y2(13,19) <= 0
 y2_def(11,13,14,19)__ge: - yn(14) + y2(13,19) >= 0
 y2_def(13,14,11,19)__le: - yn(11) + y2(14,19) <= 0
 y2_def(13,14,11,19)__ge: - yn(11) + y2(14,19) >= 0
 y2_def(14,11,13,19)__le: - yn(13) + y2(11,19) <= 0
 y2_def(14,11,13,19)__ge: - yn(13) + y2(11,19) >= 0
 y2_def(6,3,2,20)__le: - yn(2) + y2(3,20) <= 0
 y2_def(6,3,2,20)__ge: - yn(2) + y2(3,20) >= 0
 y2_def(3,2,6,20)__le: - yn(6) + y2(2,20) <= 0
 y2_def(3,2,6,20)__ge: - yn(6) + y2(2,20) >= 0
 y2_def(2,6,3,20)__le: - yn(3) + y2(6,20) <= 0
 y2_def(2,6,3,20)__ge: - yn(3) + y2(6,20) >= 0
 y3_def(4,3,6,0)__le: - yn(4) + y3(3,0) <= 0
 y3_def(4,3,6,0)__ge: - yn(4) + y3(3,0) >= 0
 y3_def(3,6,7,0)__le: - yn(3) + y3(6,0) <= 0
 y3_def(3,6,7,0)__ge: - yn(3) + y3(6,0) >= 0
 y3_def(6,7,4,0)__le: - yn(6) + y3(7,0) <= 0
 y3_def(6,7,4,0)__ge: - yn(6) + y3(7,0) >= 0
 y3_def(7,4,3,0)__le: - yn(7) + y3(4,0) <= 0
 y3_def(7,4,3,0)__ge: - yn(7) + y3(4,0) >= 0
 y3_def(8,0,5,1)__le: - yn(8) + y3(0,1) <= 0
 y3_def(8,0,5,1)__ge: - yn(8) + y3(0,1) >= 0
 y3_def(0,5,9,1)__le: - yn(0) + y3(5,1) <= 0
 y3_def(0,5,9,1)__ge: - yn(0) + y3(5,1) >= 0
 y3_def(5,9,8,1)__le: - yn(5) + y3(9,1) <= 0
 y3_def(5,9,8,1)__ge: - yn(5) + y3(9,1) >= 0
 y3_def(9,8,0,1)__le: - yn(9) + y3(8,1) <= 0
 y3_def(9,8,0,1)__ge: - yn(9) + y3(8,1) >= 0
 y3_def(6,2,10,2)__le: - yn(6) + y3(2,2) <= 0
 y3_def(6,2,10,2)__ge: - yn(6) + y3(2,2) >= 0
 y3_def(2,10,11,2)__le: - yn(2) + y3(10,2) <= 0
 y3_def(2,10,11,2)__ge: - yn(2) + y3(10,2) >= 0
 y3_def(10,11,6,2)__le: - yn(10) + y3(11,2) <= 0
 y3_def(10,11,6,2)__ge: - yn(10) + y3(11,2) >= 0
 y3_def(11,6,2,2)__le: - yn(11) + y3(6,2) <= 0
 y3_def(11,6,2,2)__ge: - yn(11) + y3(6,2) >= 0
 y3_def(0,1,2,3)__le: - yn(0) + y3(1,3) <= 0
 y3_def(0,1,2,3)__ge: - yn(0) + y3(1,3) >= 0
 y3_def(1,2,3,3)__le: - yn(1) + y3(2,3) <= 0
 y3_def(1,2,3,3)__ge: - yn(1) + y3(2,3) >= 0
 y3_def(2,3,0,3)__le: - yn(2) + y3(3,3) <= 0
 y3_def(2,3,0,3)__ge: - yn(2) + y3(3,3) >= 0
 y3_def(3,0,1,3)__le: - yn(3) + y3(0,3) <= 0
 y3_def(3,0,1,3)__ge: - yn(3) + y3(0,3) >= 0
 y3_def(0,3,4,4)__le: - yn(0) + y3(3,4) <= 0
 y3_def(0,3,4,4)__ge: - yn(0) + y3(3,4) >= 0
 y3_def(3,4,5,4)__le: - yn(3) + y3(4,4) <= 0
 y3_def(3,4,5,4)__ge: - yn(3) + y3(4,4) >= 0
 y3_def(4,5,0,4)__le: - yn(4) + y3(5,4) <= 0
 y3_def(4,5,0,4)__ge: - yn(4) + y3(5,4) >= 0
 y3_def(5,0,3,4)__le: - yn(5) + y3(0,4) <= 0
 y3_def(5,0,3,4)__ge: - yn(5) + y3(0,4) >= 0
 y3_def(1,0,8,5)__le: - yn(1) + y3(0,5) <= 0
 y3_def(1,0,8,5)__ge: - yn(1) + y3(0,5) >= 0
 y3_def(0,8,1,5)__le: - yn(0) + y3(8,5) <= 0
 y3_def(0,8,1,5)__ge: - yn(0) + y3(8,5) >= 0
 y3_def(8,1,0,5)__le: - yn(8) + y3(1,5) <= 0
 y3_def(8,1,0,5)__ge: - yn(8) + y3(1,5) >= 0
 y3_def(10,2,1,6)__le: - yn(10) + y3(2,6) <= 0
 y3_def(10,2,1,6)__ge: - yn(10) + y3(2,6) >= 0
 y3_def(2,1,10,6)__le: - yn(2) + y3(1,6) <= 0
 y3_def(2,1,10,6)__ge: - yn(2) + y3(1,6) >= 0
 y3_def(1,10,2,6)__le: - yn(1) + y3(10,6) <= 0
 y3_def(1,10,2,6)__ge: - yn(1) + y3(10,6) >= 0
 y3_def(10,1,8,7)__le: - yn(10) + y3(1,7) <= 0
 y3_def(10,1,8,7)__ge: - yn(10) + y3(1,7) >= 0
 y3_def(1,8,10,7)__le: - yn(1) + y3(8,7) <= 0
 y3_def(1,8,10,7)__ge: - yn(1) + y3(8,7) >= 0
 y3_def(8,10,1,7)__le: - yn(8) + y3(10,7) <= 0
 y3_def(8,10,1,7)__ge: - yn(8) + y3(10,7) >= 0
 y3_def(7,6,11,8)__le: - yn(7) + y3(6,8) <= 0
 y3_def(7,6,11,8)__ge: - yn(7) + y3(6,8) >= 0
 y3_def(6,11,7,8)__le: - yn(6) + y3(11,8) <= 0
 y3_def(6,11,7,8)__ge: - yn(6) + y3(11,8) >= 0
 y3_def(11,7,6,8)__le: - yn(11) + y3(7,8) <= 0
 y3_def(11,7,6,8)__ge: - yn(11) + y3(7,8) >= 0
 y3_def(9,5,12,9)__le: - yn(9) + y3(5,9) <= 0
 y3_def(9,5,12,9)__ge: - yn(9) + y3(5,9) >= 0
 y3_def(5,12,9,9)__le: - yn(5) + y3(12,9) <= 0
 y3_def(5,12,9,9)__ge: - yn(5) + y3(12,9) >= 0
 y3_def(12,9,5,9)__le: - yn(12) + y3(9,9) <= 0
 y3_def(12,9,5,9)__ge: - yn(12) + y3(9,9) >= 0
 y3_def(12,5,4,10)__le: - yn(12) + y3(5,10) <= 0
 y3_def(12,5,4,10)__ge: - yn(12) + y3(5,10) >= 0
 y3_def(5,4,12,10)__le: - yn(5) + y3(4,10) <= 0
 y3_def(5,4,12,10)__ge: - yn(5) + y3(4,10) >= 0
 y3_def(4,12,5,10)__le: - yn(4) + y3(12,10) <= 0
 y3_def(4,12,5,10)__ge: - yn(4) + y3(12,10) >= 0
 y3_def(12,4,7,11)__le: - yn(12) + y3(4,11) <= 0
 y3_def(12,4,7,11)__ge: - yn(12) + y3(4,11) >= 0
 y3_def(4,7,12,11)__le: - yn(4) + y3(7,11) <= 0
 y3_def(4,7,12,11)__ge: - yn(4) + y3(7,11) >= 0
 y3_def(7,12,4,11)__le: - yn(7) + y3(12,11) <= 0
 y3_def(7,12,4,11)__ge: - yn(7) + y3(12,11) >= 0
 y3_def(11,10,13,12)__le: - yn(11) + y3(10,12) <= 0
 y3_def(11,10,13,12)__ge: - yn(11) + y3(10,12) >= 0
 y3_def(10,13,11,12)__le: - yn(10) + y3(13,12) <= 0
 y3_def(10,13,11,12)__ge: - yn(10) + y3(13,12) >= 0
 y3_def(13,11,10,12)__le: - yn(13) + y3(11,12) <= 0
 y3_def(13,11,10,12)__ge: - yn(13) + y3(11,12) >= 0
 y3_def(13,10,8,13)__le: - yn(13) + y3(10,13) <= 0
 y3_def(13,10,8,13)__ge: - yn(13) + y3(10,13) >= 0
 y3_def(10,8,13,13)__le: - yn(10) + y3(8,13) <= 0
 y3_def(10,8,13,13)__ge: - yn(10) + y3(8,13) >= 0
 y3_def(8,13,10,13)__le: - yn(8) + y3(13,13) <= 0
 y3_def(8,13,10,13)__ge: - yn(8) + y3(13,13) >= 0
 y3_def(13,8,9,14)__le: - yn(13) + y3(8,14) <= 0
 y3_def(13,8,9,14)__ge: - yn(13) + y3(8,14) >= 0
 y3_def(8,9,13,14)__le: - yn(8) + y3(9,14) <= 0
 y3_def(8,9,13,14)__ge: - yn(8) + y3(9,14) >= 0
 y3_def(9,13,8,14)__le: - yn(9) + y3(13,14) <= 0
 y3_def(9,13,8,14)__ge: - yn(9) + y3(13,14) >= 0
 y3_def(13,9,14,15)__le: - yn(13) + y3(9,15) <= 0
 y3_def(13,9,14,15)__ge: - yn(13) + y3(9,15) >= 0
 y3_def(9,14,13,15)__le: - yn(9) + y3(14,15) <= 0
 y3_def(9,14,13,15)__ge: - yn(9) + y3(14,15) >= 0
 y3_def(14,13,9,15)__le: - yn(14) + y3(13,15) <= 0
 y3_def(14,13,9,15)__ge: - yn(14) + y3(13,15) >= 0
 y3_def(14,9,12,16)__le: - yn(14) + y3(9,16) <= 0
 y3_def(14,9,12,16)__ge: - yn(14) + y3(9,16) >= 0
 y3_def(9,12,14,16)__le: - yn(9) + y3(12,16) <= 0
 y3_def(9,12,14,16)__ge: - yn(9) + y3(12,16) >= 0
 y3_def(12,14,9,16)__le: - yn(12) + y3(14,16) <= 0
 y3_def(12,14,9,16)__ge: - yn(12) + y3(14,16) >= 0
 y3_def(14,12,7,17)__le: - yn(14) + y3(12,17) <= 0
 y3_def(14,12,7,17)__ge: - yn(14) + y3(12,17) >= 0
 y3_def(12,7,14,17)__le: - yn(12) + y3(7,17) <= 0
 y3_def(12,7,14,17)__ge: - yn(12) + y3(7,17) >= 0
 y3_def(7,14,12,17)__le: - yn(7) + y3(14,17) <= 0
 y3_def(7,14,12,17)__ge: - yn(7) + y3(14,17) >= 0
 y3_def(14,7,11,18)__le: - yn(14) + y3(7,18) <= 0
 y3_def(14,7,11,18)__ge: - yn(14) + y3(7,18) >= 0
 y3_def(7,11,14,18)__le: - yn(7) + y3(11,18) <= 0
 y3_def(7,11,14,18)__ge: - yn(7) + y3(11,18) >= 0
 y3_def(11,14,7,18)__le: - yn(11) + y3(14,18) <= 0
 y3_def(11,14,7,18)__ge: - yn(11) + y3(14,18) >= 0
 y3_def(11,13,14,19)__le: - yn(11) + y3(13,19) <= 0
 y3_def(11,13,14,19)__ge: - yn(11) + y3(13,19) >= 0
 y3_def(13,14,11,19)__le: - yn(13) + y3(14,19) <= 0
 y3_def(13,14,11,19)__ge: - yn(13) + y3(14,19) >= 0
 y3_def(14,11,13,19)__le: - yn(14) + y3(11,19) <= 0
 y3_def(14,11,13,19)__ge: - yn(14) + y3(11,19) >= 0
 y3_def(6,3,2,20)__le: - yn(6) + y3(3,20) <= 0
 y3_def(6,3,2,20)__ge: - yn(6) + y3(3,20) >= 0
 y3_def(3,2,6,20)__le: - yn(3) + y3(2,20) <= 0
 y3_def(3,2,6,20)__ge: - yn(3) + y3(2,20) >= 0
 y3_def(2,6,3,20)__le: - yn(2) + y3(6,20) <= 0
 y3_def(2,6,3,20)__ge: - yn(2) + y3(6,20) >= 0
 y4_def(1,0,8,5)__le: - ye(8,5) + y4(0,5) <= 0
 y4_def(1,0,8,5)__ge: - ye(8,5) + y4(0,5) >= 0
 y4_def(0,8,1,5)__le: - ye(1,5) + y4(8,5) <= 0
 y4_def(0,8,1,5)__ge: - ye(1,5) + y4(8,5) >= 0
 y4_def(8,1,0,5)__le: - ye(0,5) + y4(1,5) <= 0
 y4_def(8,1,0,5)__ge: - ye(0,5) + y4(1,5) >= 0
 y4_def(10,2,1,6)__le: - ye(1,6) + y4(2,6) <= 0
 y4_def(10,2,1,6)__ge: - ye(1,6) + y4(2,6) >= 0
 y4_def(2,1,10,6)__le: - ye(10,6) + y4(1,6) <= 0
 y4_def(2,1,10,6)__ge: - ye(10,6) + y4(1,6) >= 0
 y4_def(1,10,2,6)__le: - ye(2,6) + y4(10,6) <= 0
 y4_def(1,10,2,6)__ge: - ye(2,6) + y4(10,6) >= 0
 y4_def(10,1,8,7)__le: - ye(8,7) + y4(1,7) <= 0
 y4_def(10,1,8,7)__ge: - ye(8,7) + y4(1,7) >= 0
 y4_def(1,8,10,7)__le: - ye(10,7) + y4(8,7) <= 0
 y4_def(1,8,10,7)__ge: - ye(10,7) + y4(8,7) >= 0
 y4_def(8,10,1,7)__le: - ye(1,7) + y4(10,7) <= 0
 y4_def(8,10,1,7)__ge: - ye(1,7) + y4(10,7) >= 0
 y4_def(7,6,11,8)__le: - ye(11,8) + y4(6,8) <= 0
 y4_def(7,6,11,8)__ge: - ye(11,8) + y4(6,8) >= 0
 y4_def(6,11,7,8)__le: - ye(7,8) + y4(11,8) <= 0
 y4_def(6,11,7,8)__ge: - ye(7,8) + y4(11,8) >= 0
 y4_def(11,7,6,8)__le: - ye(6,8) + y4(7,8) <= 0
 y4_def(11,7,6,8)__ge: - ye(6,8) + y4(7,8) >= 0
 y4_def(9,5,12,9)__le: - ye(12,9) + y4(5,9) <= 0
 y4_def(9,5,12,9)__ge: - ye(12,9) + y4(5,9) >= 0
 y4_def(5,12,9,9)__le: - ye(9,9) + y4(12,9) <= 0
 y4_def(5,12,9,9)__ge: - ye(9,9) + y4(12,9) >= 0
 y4_def(12,9,5,9)__le: - ye(5,9) + y4(9,9) <= 0
 y4_def(12,9,5,9)__ge: - ye(5,9) + y4(9,9) >= 0
 y4_def(12,5,4,10)__le: - ye(4,10) + y4(5,10) <= 0
 y4_def(12,5,4,10)__ge: - ye(4,10) + y4(5,10) >= 0
 y4_def(5,4,12,10)__le: - ye(12,10) + y4(4,10) <= 0
 y4_def(5,4,12,10)__ge: - ye(12,10) + y4(4,10) >= 0
 y4_def(4,12,5,10)__le: - ye(5,10) + y4(12,10) <= 0
 y4_def(4,12,5,10)__ge: - ye(5,10) + y4(12,10) >= 0
 y4_def(12,4,7,11)__le: - ye(7,11) + y4(4,11) <= 0
 y4_def(12,4,7,11)__ge: - ye(7,11) + y4(4,11) >= 0
 y4_def(4,7,12,11)__le: - ye(12,11) + y4(7,11) <= 0
 y4_def(4,7,12,11)__ge: - ye(12,11) + y4(7,11) >= 0
 y4_def(7,12,4,11)__le: - ye(4,11) + y4(12,11) <= 0
 y4_def(7,12,4,11)__ge: - ye(4,11) + y4(12,11) >= 0
 y4_def(11,10,13,12)__le: - ye(13,12) + y4(10,12) <= 0
 y4_def(11,10,13,12)__ge: - ye(13,12) + y4(10,12) >= 0
 y4_def(10,13,11,12)__le: - ye(11,12) + y4(13,12) <= 0
 y4_def(10,13,11,12)__ge: - ye(11,12) + y4(13,12) >= 0
 y4_def(13,11,10,12)__le: - ye(10,12) + y4(11,12) <= 0
 y4_def(13,11,10,12)__ge: - ye(10,12) + y4(11,12) >= 0
 y4_def(13,10,8,13)__le: - ye(8,13) + y4(10,13) <= 0
 y4_def(13,10,8,13)__ge: - ye(8,13) + y4(10,13) >= 0
 y4_def(10,8,13,13)__le: - ye(13,13) + y4(8,13) <= 0
 y4_def(10,8,13,13)__ge: - ye(13,13) + y4(8,13) >= 0
 y4_def(8,13,10,13)__le: - ye(10,13) + y4(13,13) <= 0
 y4_def(8,13,10,13)__ge: - ye(10,13) + y4(13,13) >= 0
 y4_def(13,8,9,14)__le: - ye(9,14) + y4(8,14) <= 0
 y4_def(13,8,9,14)__ge: - ye(9,14) + y4(8,14) >= 0
 y4_def(8,9,13,14)__le: - ye(13,14) + y4(9,14) <= 0
 y4_def(8,9,13,14)__ge: - ye(13,14) + y4(9,14) >= 0
 y4_def(9,13,8,14)__le: - ye(8,14) + y4(13,14) <= 0
 y4_def(9,13,8,14)__ge: - ye(8,14) + y4(13,14) >= 0
 y4_def(13,9,14,15)__le: - ye(14,15) + y4(9,15) <= 0
 y4_def(13,9,14,15)__ge: - ye(14,15) + y4(9,15) >= 0
 y4_def(9,14,13,15)__le: - ye(13,15) + y4(14,15) <= 0
 y4_def(9,14,13,15)__ge: - ye(13,15) + y4(14,15) >= 0
 y4_def(14,13,9,15)__le: - ye(9,15) + y4(13,15) <= 0
 y4_def(14,13,9,15)__ge: - ye(9,15) + y4(13,15) >= 0
 y4_def(14,9,12,16)__le: - ye(12,16) + y4(9,16) <= 0
 y4_def(14,9,12,16)__ge: - ye(12,16) + y4(9,16) >= 0
 y4_def(9,12,14,16)__le: - ye(14,16) + y4(12,16) <= 0
 y4_def(9,12,14,16)__ge: - ye(14,16) + y4(12,16) >= 0
 y4_def(12,14,9,16)__le: - ye(9,16) + y4(14,16) <= 0
 y4_def(12,14,9,16)__ge: - ye(9,16) + y4(14,16) >= 0
 y4_def(14,12,7,17)__le: - ye(7,17) + y4(12,17) <= 0
 y4_def(14,12,7,17)__ge: - ye(7,17) + y4(12,17) >= 0
 y4_def(12,7,14,17)__le: - ye(14,17) + y4(7,17) <= 0
 y4_def(12,7,14,17)__ge: - ye(14,17) + y4(7,17) >= 0
 y4_def(7,14,12,17)__le: - ye(12,17) + y4(14,17) <= 0
 y4_def(7,14,12,17)__ge: - ye(12,17) + y4(14,17) >= 0
 y4_def(14,7,11,18)__le: - ye(11,18) + y4(7,18) <= 0
 y4_def(14,7,11,18)__ge: - ye(11,18) + y4(7,18) >= 0
 y4_def(7,11,14,18)__le: - ye(14,18) + y4(11,18) <= 0
 y4_def(7,11,14,18)__ge: - ye(14,18) + y4(11,18) >= 0
 y4_def(11,14,7,18)__le: - ye(7,18) + y4(14,18) <= 0
 y4_def(11,14,7,18)__ge: - ye(7,18) + y4(14,18) >= 0
 y4_def(11,13,14,19)__le: - ye(14,19) + y4(13,19) <= 0
 y4_def(11,13,14,19)__ge: - ye(14,19) + y4(13,19) >= 0
 y4_def(13,14,11,19)__le: - ye(11,19) + y4(14,19) <= 0
 y4_def(13,14,11,19)__ge: - ye(11,19) + y4(14,19) >= 0
 y4_def(14,11,13,19)__le: - ye(13,19) + y4(11,19) <= 0
 y4_def(14,11,13,19)__ge: - ye(13,19) + y4(11,19) >= 0
 y4_def(6,3,2,20)__le: - ye(2,20) + y4(3,20) <= 0
 y4_def(6,3,2,20)__ge: - ye(2,20) + y4(3,20) >= 0
 y4_def(3,2,6,20)__le: - ye(6,20) + y4(2,20) <= 0
 y4_def(3,2,6,20)__ge: - ye(6,20) + y4(2,20) >= 0
 y4_def(2,6,3,20)__le: - ye(3,20) + y4(6,20) <= 0
 y4_def(2,6,3,20)__ge: - ye(3,20) + y4(6,20) >= 0
 y5_def(4,3,6,0)__le: - ye(4,0) + y5(3,0) <= 0
 y5_def(4,3,6,0)__ge: - ye(4,0) + y5(3,0) >= 0
 y5_def(3,6,7,0)__le: - ye(3,0) + y5(6,0) <= 0
 y5_def(3,6,7,0)__ge: - ye(3,0) + y5(6,0) >= 0
 y5_def(6,7,4,0)__le: - ye(6,0) + y5(7,0) <= 0
 y5_def(6,7,4,0)__ge: - ye(6,0) + y5(7,0) >= 0
 y5_def(7,4,3,0)__le: - ye(7,0) + y5(4,0) <= 0
 y5_def(7,4,3,0)__ge: - ye(7,0) + y5(4,0) >= 0
 y5_def(8,0,5,1)__le: - ye(8,1) + y5(0,1) <= 0
 y5_def(8,0,5,1)__ge: - ye(8,1) + y5(0,1) >= 0
 y5_def(0,5,9,1)__le: - ye(0,1) + y5(5,1) <= 0
 y5_def(0,5,9,1)__ge: - ye(0,1) + y5(5,1) >= 0
 y5_def(5,9,8,1)__le: - ye(5,1) + y5(9,1) <= 0
 y5_def(5,9,8,1)__ge: - ye(5,1) + y5(9,1) >= 0
 y5_def(9,8,0,1)__le: - ye(9,1) + y5(8,1) <= 0
 y5_def(9,8,0,1)__ge: - ye(9,1) + y5(8,1) >= 0
 y5_def(6,2,10,2)__le: - ye(6,2) + y5(2,2) <= 0
 y5_def(6,2,10,2)__ge: - ye(6,2) + y5(2,2) >= 0
 y5_def(2,10,11,2)__le: - ye(2,2) + y5(10,2) <= 0
 y5_def(2,10,11,2)__ge: - ye(2,2) + y5(10,2) >= 0
 y5_def(10,11,6,2)__le: - ye(10,2) + y5(11,2) <= 0
 y5_def(10,11,6,2)__ge: - ye(10,2) + y5(11,2) >= 0
 y5_def(11,6,2,2)__le: - ye(11,2) + y5(6,2) <= 0
 y5_def(11,6,2,2)__ge: - ye(11,2) + y5(6,2) >= 0
 y5_def(0,1,2,3)__le: - ye(0,3) + y5(1,3) <= 0
 y5_def(0,1,2,3)__ge: - ye(0,3) + y5(1,3) >= 0
 y5_def(1,2,3,3)__le: - ye(1,3) + y5(2,3) <= 0
 y5_def(1,2,3,3)__ge: - ye(1,3) + y5(2,3) >= 0
 y5_def(2,3,0,3)__le: - ye(2,3) + y5(3,3) <= 0
 y5_def(2,3,0,3)__ge: - ye(2,3) + y5(3,3) >= 0
 y5_def(3,0,1,3)__le: - ye(3,3) + y5(0,3) <= 0
 y5_def(3,0,1,3)__ge: - ye(3,3) + y5(0,3) >= 0
 y5_def(0,3,4,4)__le: - ye(0,4) + y5(3,4) <= 0
 y5_def(0,3,4,4)__ge: - ye(0,4) + y5(3,4) >= 0
 y5_def(3,4,5,4)__le: - ye(3,4) + y5(4,4) <= 0
 y5_def(3,4,5,4)__ge: - ye(3,4) + y5(4,4) >= 0
 y5_def(4,5,0,4)__le: - ye(4,4) + y5(5,4) <= 0
 y5_def(4,5,0,4)__ge: - ye(4,4) + y5(5,4) >= 0
 y5_def(5,0,3,4)__le: - ye(5,4) + y5(0,4) <= 0
 y5_def(5,0,3,4)__ge: - ye(5,4) + y5(0,4) >= 0
 y5_def(1,0,8,5)__le: - ye(1,5) + y5(0,5) <= 0
 y5_def(1,0,8,5)__ge: - ye(1,5) + y5(0,5) >= 0
 y5_def(0,8,1,5)__le: - ye(0,5) + y5(8,5) <= 0
 y5_def(0,8,1,5)__ge: - ye(0,5) + y5(8,5) >= 0
 y5_def(8,1,0,5)__le: - ye(8,5) + y5(1,5) <= 0
 y5_def(8,1,0,5)__ge: - ye(8,5) + y5(1,5) >= 0
 y5_def(10,2,1,6)__le: - ye(10,6) + y5(2,6) <= 0
 y5_def(10,2,1,6)__ge: - ye(10,6) + y5(2,6) >= 0
 y5_def(2,1,10,6)__le: - ye(2,6) + y5(1,6) <= 0
 y5_def(2,1,10,6)__ge: - ye(2,6) + y5(1,6) >= 0
 y5_def(1,10,2,6)__le: - ye(1,6) + y5(10,6) <= 0
 y5_def(1,10,2,6)__ge: - ye(1,6) + y5(10,6) >= 0
 y5_def(10,1,8,7)__le: - ye(10,7) + y5(1,7) <= 0
 y5_def(10,1,8,7)__ge: - ye(10,7) + y5(1,7) >= 0
 y5_def(1,8,10,7)__le: - ye(1,7) + y5(8,7) <= 0
 y5_def(1,8,10,7)__ge: - ye(1,7) + y5(8,7) >= 0
 y5_def(8,10,1,7)__le: - ye(8,7) + y5(10,7) <= 0
 y5_def(8,10,1,7)__ge: - ye(8,7) + y5(10,7) >= 0
 y5_def(7,6,11,8)__le: - ye(7,8) + y5(6,8) <= 0
 y5_def(7,6,11,8)__ge: - ye(7,8) + y5(6,8) >= 0
 y5_def(6,11,7,8)__le: - ye(6,8) + y5(11,8) <= 0
 y5_def(6,11,7,8)__ge: - ye(6,8) + y5(11,8) >= 0
 y5_def(11,7,6,8)__le: - ye(11,8) + y5(7,8) <= 0
 y5_def(11,7,6,8)__ge: - ye(11,8) + y5(7,8) >= 0
 y5_def(9,5,12,9)__le: - ye(9,9) + y5(5,9) <= 0
 y5_def(9,5,12,9)__ge: - ye(9,9) + y5(5,9) >= 0
 y5_def(5,12,9,9)__le: - ye(5,9) + y5(12,9) <= 0
 y5_def(5,12,9,9)__ge: - ye(5,9) + y5(12,9) >= 0
 y5_def(12,9,5,9)__le: - ye(12,9) + y5(9,9) <= 0
 y5_def(12,9,5,9)__ge: - ye(12,9) + y5(9,9) >= 0
 y5_def(12,5,4,10)__le: - ye(12,10) + y5(5,10) <= 0
 y5_def(12,5,4,10)__ge: - ye(12,10) + y5(5,10) >= 0
 y5_def(5,4,12,10)__le: - ye(5,10) + y5(4,10) <= 0
 y5_def(5,4,12,10)__ge: - ye(5,10) + y5(4,10) >= 0
 y5_def(4,12,5,10)__le: - ye(4,10) + y5(12,10) <= 0
 y5_def(4,12,5,10)__ge: - ye(4,10) + y5(12,10) >= 0
 y5_def(12,4,7,11)__le: - ye(12,11) + y5(4,11) <= 0
 y5_def(12,4,7,11)__ge: - ye(12,11) + y5(4,11) >= 0
 y5_def(4,7,12,11)__le: - ye(4,11) + y5(7,11) <= 0
 y5_def(4,7,12,11)__ge: - ye(4,11) + y5(7,11) >= 0
 y5_def(7,12,4,11)__le: - ye(7,11) + y5(12,11) <= 0
 y5_def(7,12,4,11)__ge: - ye(7,11) + y5(12,11) >= 0
 y5_def(11,10,13,12)__le: - ye(11,12) + y5(10,12) <= 0
 y5_def(11,10,13,12)__ge: - ye(11,12) + y5(10,12) >= 0
 y5_def(10,13,11,12)__le: - ye(10,12) + y5(13,12) <= 0
 y5_def(10,13,11,12)__ge: - ye(10,12) + y5(13,12) >= 0
 y5_def(13,11,10,12)__le: - ye(13,12) + y5(11,12) <= 0
 y5_def(13,11,10,12)__ge: - ye(13,12) + y5(11,12) >= 0
 y5_def(13,10,8,13)__le: - ye(13,13) + y5(10,13) <= 0
 y5_def(13,10,8,13)__ge: - ye(13,13) + y5(10,13) >= 0
 y5_def(10,8,13,13)__le: - ye(10,13) + y5(8,13) <= 0
 y5_def(10,8,13,13)__ge: - ye(10,13) + y5(8,13) >= 0
 y5_def(8,13,10,13)__le: - ye(8,13) + y5(13,13) <= 0
 y5_def(8,13,10,13)__ge: - ye(8,13) + y5(13,13) >= 0
 y5_def(13,8,9,14)__le: - ye(13,14) + y5(8,14) <= 0
 y5_def(13,8,9,14)__ge: - ye(13,14) + y5(8,14) >= 0
 y5_def(8,9,13,14)__le: - ye(8,14) + y5(9,14) <= 0
 y5_def(8,9,13,14)__ge: - ye(8,14) + y5(9,14) >= 0
 y5_def(9,13,8,14)__le: - ye(9,14) + y5(13,14) <= 0
 y5_def(9,13,8,14)__ge: - ye(9,14) + y5(13,14) >= 0
 y5_def(13,9,14,15)__le: - ye(13,15) + y5(9,15) <= 0
 y5_def(13,9,14,15)__ge: - ye(13,15) + y5(9,15) >= 0
 y5_def(9,14,13,15)__le: - ye(9,15) + y5(14,15) <= 0
 y5_def(9,14,13,15)__ge: - ye(9,15) + y5(14,15) >= 0
 y5_def(14,13,9,15)__le: - ye(14,15) + y5(13,15) <= 0
 y5_def(14,13,9,15)__ge: - ye(14,15) + y5(13,15) >= 0
 y5_def(14,9,12,16)__le: - ye(14,16) + y5(9,16) <= 0
 y5_def(14,9,12,16)__ge: - ye(14,16) + y5(9,16) >= 0
 y5_def(9,12,14,16)__le: - ye(9,16) + y5(12,16) <= 0
 y5_def(9,12,14,16)__ge: - ye(9,16) + y5(12,16) >= 0
 y5_def(12,14,9,16)__le: - ye(12,16) + y5(14,16) <= 0
 y5_def(12,14,9,16)__ge: - ye(12,16) + y5(14,16) >= 0
 y5_def(14,12,7,17)__le: - ye(14,17) + y5(12,17) <= 0
 y5_def(14,12,7,17)__ge: - ye(14,17) + y5(12,17) >= 0
 y5_def(12,7,14,17)__le: - ye(12,17) + y5(7,17) <= 0
 y5_def(12,7,14,17)__ge: - ye(12,17) + y5(7,17) >= 0
 y5_def(7,14,12,17)__le: - ye(7,17) + y5(14,17) <= 0
 y5_def(7,14,12,17)__ge: - ye(7,17) + y5(14,17) >= 0
 y5_def(14,7,11,18)__le: - ye(14,18) + y5(7,18) <= 0
 y5_def(14,7,11,18)__ge: - ye(14,18) + y5(7,18) >= 0
 y5_def(7,11,14,18)__le: - ye(7,18) + y5(11,18) <= 0
 y5_def(7,11,14,18)__ge: - ye(7,18) + y5(11,18) >= 0
 y5_def(11,14,7,18)__le: - ye(11,18) + y5(14,18) <= 0
 y5_def(11,14,7,18)__ge: - ye(11,18) + y5(14,18) >= 0
 y5_def(11,13,14,19)__le: - ye(11,19) + y5(13,19) <= 0
 y5_def(11,13,14,19)__ge: - ye(11,19) + y5(13,19) >= 0
 y5_def(13,14,11,19)__le: - ye(13,19) + y5(14,19) <= 0
 y5_def(13,14,11,19)__ge: - ye(13,19) + y5(14,19) >= 0
 y5_def(14,11,13,19)__le: - ye(14,19) + y5(11,19) <= 0
 y5_def(14,11,13,19)__ge: - ye(14,19) + y5(11,19) >= 0
 y5_def(6,3,2,20)__le: - ye(6,20) + y5(3,20) <= 0
 y5_def(6,3,2,20)__ge: - ye(6,20) + y5(3,20) >= 0
 y5_def(3,2,6,20)__le: - ye(3,20) + y5(2,20) <= 0
 y5_def(3,2,6,20)__ge: - ye(3,20) + y5(2,20) >= 0
 y5_def(2,6,3,20)__le: - ye(2,20) + y5(6,20) <= 0
 y5_def(2,6,3,20)__ge: - ye(2,20) + y5(6,20) >= 0
 y6_def(4,3,6,0)__le: - ye(3,0) + y6(3,0) <= 0
 y6_def(4,3,6,0)__ge: - ye(3,0) + y6(3,0) >= 0
 y6_def(3,6,7,0)__le: - ye(6,0) + y6(6,0) <= 0
 y6_def(3,6,7,0)__ge: - ye(6,0) + y6(6,0) >= 0
 y6_def(6,7,4,0)__le: - ye(7,0) + y6(7,0) <= 0
 y6_def(6,7,4,0)__ge: - ye(7,0) + y6(7,0) >= 0
 y6_def(7,4,3,0)__le: - ye(4,0) + y6(4,0) <= 0
 y6_def(7,4,3,0)__ge: - ye(4,0) + y6(4,0) >= 0
 y6_def(8,0,5,1)__le: - ye(0,1) + y6(0,1) <= 0
 y6_def(8,0,5,1)__ge: - ye(0,1) + y6(0,1) >= 0
 y6_def(0,5,9,1)__le: - ye(5,1) + y6(5,1) <= 0
 y6_def(0,5,9,1)__ge: - ye(5,1) + y6(5,1) >= 0
 y6_def(5,9,8,1)__le: - ye(9,1) + y6(9,1) <= 0
 y6_def(5,9,8,1)__ge: - ye(9,1) + y6(9,1) >= 0
 y6_def(9,8,0,1)__le: - ye(8,1) + y6(8,1) <= 0
 y6_def(9,8,0,1)__ge: - ye(8,1) + y6(8,1) >= 0
 y6_def(6,2,10,2)__le: - ye(2,2) + y6(2,2) <= 0
 y6_def(6,2,10,2)__ge: - ye(2,2) + y6(2,2) >= 0
 y6_def(2,10,11,2)__le: - ye(10,2) + y6(10,2) <= 0
 y6_def(2,10,11,2)__ge: - ye(10,2) + y6(10,2) >= 0
 y6_def(10,11,6,2)__le: - ye(11,2) + y6(11,2) <= 0
 y6_def(10,11,6,2)__ge: - ye(11,2) + y6(11,2) >= 0
 y6_def(11,6,2,2)__le: - ye(6,2) + y6(6,2) <= 0
 y6_def(11,6,2,2)__ge: - ye(6,2) + y6(6,2) >= 0
 y6_def(0,1,2,3)__le: - ye(1,3) + y6(1,3) <= 0
 y6_def(0,1,2,3)__ge: - ye(1,3) + y6(1,3) >= 0
 y6_def(1,2,3,3)__le: - ye(2,3) + y6(2,3) <= 0
 y6_def(1,2,3,3)__ge: - ye(2,3) + y6(2,3) >= 0
 y6_def(2,3,0,3)__le: - ye(3,3) + y6(3,3) <= 0
 y6_def(2,3,0,3)__ge: - ye(3,3) + y6(3,3) >= 0
 y6_def(3,0,1,3)__le: - ye(0,3) + y6(0,3) <= 0
 y6_def(3,0,1,3)__ge: - ye(0,3) + y6(0,3) >= 0
 y6_def(0,3,4,4)__le: - ye(3,4) + y6(3,4) <= 0
 y6_def(0,3,4,4)__ge: - ye(3,4) + y6(3,4) >= 0
 y6_def(3,4,5,4)__le: - ye(4,4) + y6(4,4) <= 0
 y6_def(3,4,5,4)__ge: - ye(4,4) + y6(4,4) >= 0
 y6_def(4,5,0,4)__le: - ye(5,4) + y6(5,4) <= 0
 y6_def(4,5,0,4)__ge: - ye(5,4) + y6(5,4) >= 0
 y6_def(5,0,3,4)__le: - ye(0,4) + y6(0,4) <= 0
 y6_def(5,0,3,4)__ge: - ye(0,4) + y6(0,4) >= 0
 y6_def(1,0,8,5)__le: - ye(0,5) + y6(0,5) <= 0
 y6_def(1,0,8,5)__ge: - ye(0,5) + y6(0,5) >= 0
 y6_def(0,8,1,5)__le: - ye(8,5) + y6(8,5) <= 0
 y6_def(0,8,1,5)__ge: - ye(8,5) + y6(8,5) >= 0
 y6_def(8,1,0,5)__le: - ye(1,5) + y6(1,5) <= 0
 y6_def(8,1,0,5)__ge: - ye(1,5) + y6(1,5) >= 0
 y6_def(10,2,1,6)__le: - ye(2,6) + y6(2,6) <= 0
 y6_def(10,2,1,6)__ge: - ye(2,6) + y6(2,6) >= 0
 y6_def(2,1,10,6)__le: - ye(1,6) + y6(1,6) <= 0
 y6_def(2,1,10,6)__ge: - ye(1,6) + y6(1,6) >= 0
 y6_def(1,10,2,6)__le: - ye(10,6) + y6(10,6) <= 0
 y6_def(1,10,2,6)__ge: - ye(10,6) + y6(10,6) >= 0
 y6_def(10,1,8,7)__le: - ye(1,7) + y6(1,7) <= 0
 y6_def(10,1,8,7)__ge: - ye(1,7) + y6(1,7) >= 0
 y6_def(1,8,10,7)__le: - ye(8,7) + y6(8,7) <= 0
 y6_def(1,8,10,7)__ge: - ye(8,7) + y6(8,7) >= 0
 y6_def(8,10,1,7)__le: - ye(10,7) + y6(10,7) <= 0
 y6_def(8,10,1,7)__ge: - ye(10,7) + y6(10,7) >= 0
 y6_def(7,6,11,8)__le: - ye(6,8) + y6(6,8) <= 0
 y6_def(7,6,11,8)__ge: - ye(6,8) + y6(6,8) >= 0
 y6_def(6,11,7,8)__le: - ye(11,8) + y6(11,8) <= 0
 y6_def(6,11,7,8)__ge: - ye(11,8) + y6(11,8) >= 0
 y6_def(11,7,6,8)__le: - ye(7,8) + y6(7,8) <= 0
 y6_def(11,7,6,8)__ge: - ye(7,8) + y6(7,8) >= 0
 y6_def(9,5,12,9)__le: - ye(5,9) + y6(5,9) <= 0
 y6_def(9,5,12,9)__ge: - ye(5,9) + y6(5,9) >= 0
 y6_def(5,12,9,9)__le: - ye(12,9) + y6(12,9) <= 0
 y6_def(5,12,9,9)__ge: - ye(12,9) + y6(12,9) >= 0
 y6_def(12,9,5,9)__le: - ye(9,9) + y6(9,9) <= 0
 y6_def(12,9,5,9)__ge: - ye(9,9) + y6(9,9) >= 0
 y6_def(12,5,4,10)__le: - ye(5,10) + y6(5,10) <= 0
 y6_def(12,5,4,10)__ge: - ye(5,10) + y6(5,10) >= 0
 y6_def(5,4,12,10)__le: - ye(4,10) + y6(4,10) <= 0
 y6_def(5,4,12,10)__ge: - ye(4,10) + y6(4,10) >= 0
 y6_def(4,12,5,10)__le: - ye(12,10) + y6(12,10) <= 0
 y6_def(4,12,5,10)__ge: - ye(12,10) + y6(12,10) >= 0
 y6_def(12,4,7,11)__le: - ye(4,11) + y6(4,11) <= 0
 y6_def(12,4,7,11)__ge: - ye(4,11) + y6(4,11) >= 0
 y6_def(4,7,12,11)__le: - ye(7,11) + y6(7,11) <= 0
 y6_def(4,7,12,11)__ge: - ye(7,11) + y6(7,11) >= 0
 y6_def(7,12,4,11)__le: - ye(12,11) + y6(12,11) <= 0
 y6_def(7,12,4,11)__ge: - ye(12,11) + y6(12,11) >= 0
 y6_def(11,10,13,12)__le: - ye(10,12) + y6(10,12) <= 0
 y6_def(11,10,13,12)__ge: - ye(10,12) + y6(10,12) >= 0
 y6_def(10,13,11,12)__le: - ye(13,12) + y6(13,12) <= 0
 y6_def(10,13,11,12)__ge: - ye(13,12) + y6(13,12) >= 0
 y6_def(13,11,10,12)__le: - ye(11,12) + y6(11,12) <= 0
 y6_def(13,11,10,12)__ge: - ye(11,12) + y6(11,12) >= 0
 y6_def(13,10,8,13)__le: - ye(10,13) + y6(10,13) <= 0
 y6_def(13,10,8,13)__ge: - ye(10,13) + y6(10,13) >= 0
 y6_def(10,8,13,13)__le: - ye(8,13) + y6(8,13) <= 0
 y6_def(10,8,13,13)__ge: - ye(8,13) + y6(8,13) >= 0
 y6_def(8,13,10,13)__le: - ye(13,13) + y6(13,13) <= 0
 y6_def(8,13,10,13)__ge: - ye(13,13) + y6(13,13) >= 0
 y6_def(13,8,9,14)__le: - ye(8,14) + y6(8,14) <= 0
 y6_def(13,8,9,14)__ge: - ye(8,14) + y6(8,14) >= 0
 y6_def(8,9,13,14)__le: - ye(9,14) + y6(9,14) <= 0
 y6_def(8,9,13,14)__ge: - ye(9,14) + y6(9,14) >= 0
 y6_def(9,13,8,14)__le: - ye(13,14) + y6(13,14) <= 0
 y6_def(9,13,8,14)__ge: - ye(13,14) + y6(13,14) >= 0
 y6_def(13,9,14,15)__le: - ye(9,15) + y6(9,15) <= 0
 y6_def(13,9,14,15)__ge: - ye(9,15) + y6(9,15) >= 0
 y6_def(9,14,13,15)__le: - ye(14,15) + y6(14,15) <= 0
 y6_def(9,14,13,15)__ge: - ye(14,15) + y6(14,15) >= 0
 y6_def(14,13,9,15)__le: - ye(13,15) + y6(13,15) <= 0
 y6_def(14,13,9,15)__ge: - ye(13,15) + y6(13,15) >= 0
 y6_def(14,9,12,16)__le: - ye(9,16) + y6(9,16) <= 0
 y6_def(14,9,12,16)__ge: - ye(9,16) + y6(9,16) >= 0
 y6_def(9,12,14,16)__le: - ye(12,16) + y6(12,16) <= 0
 y6_def(9,12,14,16)__ge: - ye(12,16) + y6(12,16) >= 0
 y6_def(12,14,9,16)__le: - ye(14,16) + y6(14,16) <= 0
 y6_def(12,14,9,16)__ge: - ye(14,16) + y6(14,16) >= 0
 y6_def(14,12,7,17)__le: - ye(12,17) + y6(12,17) <= 0
 y6_def(14,12,7,17)__ge: - ye(12,17) + y6(12,17) >= 0
 y6_def(12,7,14,17)__le: - ye(7,17) + y6(7,17) <= 0
 y6_def(12,7,14,17)__ge: - ye(7,17) + y6(7,17) >= 0
 y6_def(7,14,12,17)__le: - ye(14,17) + y6(14,17) <= 0
 y6_def(7,14,12,17)__ge: - ye(14,17) + y6(14,17) >= 0
 y6_def(14,7,11,18)__le: - ye(7,18) + y6(7,18) <= 0
 y6_def(14,7,11,18)__ge: - ye(7,18) + y6(7,18) >= 0
 y6_def(7,11,14,18)__le: - ye(11,18) + y6(11,18) <= 0
 y6_def(7,11,14,18)__ge: - ye(11,18) + y6(11,18) >= 0
 y6_def(11,14,7,18)__le: - ye(14,18) + y6(14,18) <= 0
 y6_def(11,14,7,18)__ge: - ye(14,18) + y6(14,18) >= 0
 y6_def(11,13,14,19)__le: - ye(13,19) + y6(13,19) <= 0
 y6_def(11,13,14,19)__ge: - ye(13,19) + y6(13,19) >= 0
 y6_def(13,14,11,19)__le: - ye(14,19) + y6(14,19) <= 0
 y6_def(13,14,11,19)__ge: - ye(14,19) + y6(14,19) >= 0
 y6_def(14,11,13,19)__le: - ye(11,19) + y6(11,19) <= 0
 y6_def(14,11,13,19)__ge: - ye(11,19) + y6(11,19) >= 0
 y6_def(6,3,2,20)__le: - ye(3,20) + y6(3,20) <= 0
 y6_def(6,3,2,20)__ge: - ye(3,20) + y6(3,20) >= 0
 y6_def(3,2,6,20)__le: - ye(2,20) + y6(2,20) <= 0
 y6_def(3,2,6,20)__ge: - ye(2,20) + y6(2,20) >= 0
 y6_def(2,6,3,20)__le: - ye(6,20) + y6(6,20) <= 0
 y6_def(2,6,3,20)__ge: - ye(6,20) + y6(6,20) >= 0
 y9_def(4,3,6,0)__le: - ye(6,0) + y9(3,0) <= 0
 y9_def(4,3,6,0)__ge: - ye(6,0) + y9(3,0) >= 0
 y9_def(3,6,7,0)__le: - ye(7,0) + y9(6,0) <= 0
 y9_def(3,6,7,0)__ge: - ye(7,0) + y9(6,0) >= 0
 y9_def(6,7,4,0)__le: - ye(4,0) + y9(7,0) <= 0
 y9_def(6,7,4,0)__ge: - ye(4,0) + y9(7,0) >= 0
 y9_def(7,4,3,0)__le: - ye(3,0) + y9(4,0) <= 0
 y9_def(7,4,3,0)__ge: - ye(3,0) + y9(4,0) >= 0
 y9_def(8,0,5,1)__le: - ye(5,1) + y9(0,1) <= 0
 y9_def(8,0,5,1)__ge: - ye(5,1) + y9(0,1) >= 0
 y9_def(0,5,9,1)__le: - ye(9,1) + y9(5,1) <= 0
 y9_def(0,5,9,1)__ge: - ye(9,1) + y9(5,1) >= 0
 y9_def(5,9,8,1)__le: - ye(8,1) + y9(9,1) <= 0
 y9_def(5,9,8,1)__ge: - ye(8,1) + y9(9,1) >= 0
 y9_def(9,8,0,1)__le: - ye(0,1) + y9(8,1) <= 0
 y9_def(9,8,0,1)__ge: - ye(0,1) + y9(8,1) >= 0
 y9_def(6,2,10,2)__le: - ye(10,2) + y9(2,2) <= 0
 y9_def(6,2,10,2)__ge: - ye(10,2) + y9(2,2) >= 0
 y9_def(2,10,11,2)__le: - ye(11,2) + y9(10,2) <= 0
 y9_def(2,10,11,2)__ge: - ye(11,2) + y9(10,2) >= 0
 y9_def(10,11,6,2)__le: - ye(6,2) + y9(11,2) <= 0
 y9_def(10,11,6,2)__ge: - ye(6,2) + y9(11,2) >= 0
 y9_def(11,6,2,2)__le: - ye(2,2) + y9(6,2) <= 0
 y9_def(11,6,2,2)__ge: - ye(2,2) + y9(6,2) >= 0
 y9_def(0,1,2,3)__le: - ye(2,3) + y9(1,3) <= 0
 y9_def(0,1,2,3)__ge: - ye(2,3) + y9(1,3) >= 0
 y9_def(1,2,3,3)__le: - ye(3,3) + y9(2,3) <= 0
 y9_def(1,2,3,3)__ge: - ye(3,3) + y9(2,3) >= 0
 y9_def(2,3,0,3)__le: - ye(0,3) + y9(3,3) <= 0
 y9_def(2,3,0,3)__ge: - ye(0,3) + y9(3,3) >= 0
 y9_def(3,0,1,3)__le: - ye(1,3) + y9(0,3) <= 0
 y9_def(3,0,1,3)__ge: - ye(1,3) + y9(0,3) >= 0
 y9_def(0,3,4,4)__le: - ye(4,4) + y9(3,4) <= 0
 y9_def(0,3,4,4)__ge: - ye(4,4) + y9(3,4) >= 0
 y9_def(3,4,5,4)__le: - ye(5,4) + y9(4,4) <= 0
 y9_def(3,4,5,4)__ge: - ye(5,4) + y9(4,4) >= 0
 y9_def(4,5,0,4)__le: - ye(0,4) + y9(5,4) <= 0
 y9_def(4,5,0,4)__ge: - ye(0,4) + y9(5,4) >= 0
 y9_def(5,0,3,4)__le: - ye(3,4) + y9(0,4) <= 0
 y9_def(5,0,3,4)__ge: - ye(3,4) + y9(0,4) >= 0
 y8_def(4,3,6,0)__le: - y5(4,0) + y8(3,0) <= 0
 y8_def(4,3,6,0)__ge: - y5(4,0) + y8(3,0) >= 0
 y8_def(3,6,7,0)__le: - y5(3,0) + y8(6,0) <= 0
 y8_def(3,6,7,0)__ge: - y5(3,0) + y8(6,0) >= 0
 y8_def(6,7,4,0)__le: - y5(6,0) + y8(7,0) <= 0
 y8_def(6,7,4,0)__ge: - y5(6,0) + y8(7,0) >= 0
 y8_def(7,4,3,0)__le: - y5(7,0) + y8(4,0) <= 0
 y8_def(7,4,3,0)__ge: - y5(7,0) + y8(4,0) >= 0
 y8_def(8,0,5,1)__le: - y5(8,1) + y8(0,1) <= 0
 y8_def(8,0,5,1)__ge: - y5(8,1) + y8(0,1) >= 0
 y8_def(0,5,9,1)__le: - y5(0,1) + y8(5,1) <= 0
 y8_def(0,5,9,1)__ge: - y5(0,1) + y8(5,1) >= 0
 y8_def(5,9,8,1)__le: - y5(5,1) + y8(9,1) <= 0
 y8_def(5,9,8,1)__ge: - y5(5,1) + y8(9,1) >= 0
 y8_def(9,8,0,1)__le: - y5(9,1) + y8(8,1) <= 0
 y8_def(9,8,0,1)__ge: - y5(9,1) + y8(8,1) >= 0
 y8_def(6,2,10,2)__le: - y5(6,2) + y8(2,2) <= 0
 y8_def(6,2,10,2)__ge: - y5(6,2) + y8(2,2) >= 0
 y8_def(2,10,11,2)__le: - y5(2,2) + y8(10,2) <= 0
 y8_def(2,10,11,2)__ge: - y5(2,2) + y8(10,2) >= 0
 y8_def(10,11,6,2)__le: - y5(10,2) + y8(11,2) <= 0
 y8_def(10,11,6,2)__ge: - y5(10,2) + y8(11,2) >= 0
 y8_def(11,6,2,2)__le: - y5(11,2) + y8(6,2) <= 0
 y8_def(11,6,2,2)__ge: - y5(11,2) + y8(6,2) >= 0
 y8_def(0,1,2,3)__le: - y5(0,3) + y8(1,3) <= 0
 y8_def(0,1,2,3)__ge: - y5(0,3) + y8(1,3) >= 0
 y8_def(1,2,3,3)__le: - y5(1,3) + y8(2,3) <= 0
 y8_def(1,2,3,3)__ge: - y5(1,3) + y8(2,3) >= 0
 y8_def(2,3,0,3)__le: - y5(2,3) + y8(3,3) <= 0
 y8_def(2,3,0,3)__ge: - y5(2,3) + y8(3,3) >= 0
 y8_def(3,0,1,3)__le: - y5(3,3) + y8(0,3) <= 0
 y8_def(3,0,1,3)__ge: - y5(3,3) + y8(0,3) >= 0
 y8_def(0,3,4,4)__le: - y5(0,4) + y8(3,4) <= 0
 y8_def(0,3,4,4)__ge: - y5(0,4) + y8(3,4) >= 0
 y8_def(3,4,5,4)__le: - y5(3,4) + y8(4,4) <= 0
 y8_def(3,4,5,4)__ge: - y5(3,4) + y8(4,4) >= 0
 y8_def(4,5,0,4)__le: - y5(4,4) + y8(5,4) <= 0
 y8_def(4,5,0,4)__ge: - y5(4,4) + y8(5,4) >= 0
 y8_def(5,0,3,4)__le: - y5(5,4) + y8(0,4) <= 0
 y8_def(5,0,3,4)__ge: - y5(5,4) + y8(0,4) >= 0
 azim2c(1,0,8,5)__le: - azim(8,5) + azim2(0,5) <= 0
 azim2c(1,0,8,5)__ge: - azim(8,5) + azim2(0,5) >= 0
 azim2c(0,8,1,5)__le: - azim(1,5) + azim2(8,5) <= 0
 azim2c(0,8,1,5)__ge: - azim(1,5) + azim2(8,5) >= 0
 azim2c(8,1,0,5)__le: - azim(0,5) + azim2(1,5) <= 0
 azim2c(8,1,0,5)__ge: - azim(0,5) + azim2(1,5) >= 0
 azim2c(10,2,1,6)__le: - azim(1,6) + azim2(2,6) <= 0
 azim2c(10,2,1,6)__ge: - azim(1,6) + azim2(2,6) >= 0
 azim2c(2,1,10,6)__le: - azim(10,6) + azim2(1,6) <= 0
 azim2c(2,1,10,6)__ge: - azim(10,6) + azim2(1,6) >= 0
 azim2c(1,10,2,6)__le: - azim(2,6) + azim2(10,6) <= 0
 azim2c(1,10,2,6)__ge: - azim(2,6) + azim2(10,6) >= 0
 azim2c(10,1,8,7)__le: - azim(8,7) + azim2(1,7) <= 0
 azim2c(10,1,8,7)__ge: - azim(8,7) + azim2(1,7) >= 0
 azim2c(1,8,10,7)__le: - azim(10,7) + azim2(8,7) <= 0
 azim2c(1,8,10,7)__ge: - azim(10,7) + azim2(8,7) >= 0
 azim2c(8,10,1,7)__le: - azim(1,7) + azim2(10,7) <= 0
 azim2c(8,10,1,7)__ge: - azim(1,7) + azim2(10,7) >= 0
 azim2c(7,6,11,8)__le: - azim(11,8) + azim2(6,8) <= 0
 azim2c(7,6,11,8)__ge: - azim(11,8) + azim2(6,8) >= 0
 azim2c(6,11,7,8)__le: - azim(7,8) + azim2(11,8) <= 0
 azim2c(6,11,7,8)__ge: - azim(7,8) + azim2(11,8) >= 0
 azim2c(11,7,6,8)__le: - azim(6,8) + azim2(7,8) <= 0
 azim2c(11,7,6,8)__ge: - azim(6,8) + azim2(7,8) >= 0
 azim2c(9,5,12,9)__le: - azim(12,9) + azim2(5,9) <= 0
 azim2c(9,5,12,9)__ge: - azim(12,9) + azim2(5,9) >= 0
 azim2c(5,12,9,9)__le: - azim(9,9) + azim2(12,9) <= 0
 azim2c(5,12,9,9)__ge: - azim(9,9) + azim2(12,9) >= 0
 azim2c(12,9,5,9)__le: - azim(5,9) + azim2(9,9) <= 0
 azim2c(12,9,5,9)__ge: - azim(5,9) + azim2(9,9) >= 0
 azim2c(12,5,4,10)__le: - azim(4,10) + azim2(5,10) <= 0
 azim2c(12,5,4,10)__ge: - azim(4,10) + azim2(5,10) >= 0
 azim2c(5,4,12,10)__le: - azim(12,10) + azim2(4,10) <= 0
 azim2c(5,4,12,10)__ge: - azim(12,10) + azim2(4,10) >= 0
 azim2c(4,12,5,10)__le: - azim(5,10) + azim2(12,10) <= 0
 azim2c(4,12,5,10)__ge: - azim(5,10) + azim2(12,10) >= 0
 azim2c(12,4,7,11)__le: - azim(7,11) + azim2(4,11) <= 0
 azim2c(12,4,7,11)__ge: - azim(7,11) + azim2(4,11) >= 0
 azim2c(4,7,12,11)__le: - azim(12,11) + azim2(7,11) <= 0
 azim2c(4,7,12,11)__ge: - azim(12,11) + azim2(7,11) >= 0
 azim2c(7,12,4,11)__le: - azim(4,11) + azim2(12,11) <= 0
 azim2c(7,12,4,11)__ge: - azim(4,11) + azim2(12,11) >= 0
 azim2c(11,10,13,12)__le: - azim(13,12) + azim2(10,12) <= 0
 azim2c(11,10,13,12)__ge: - azim(13,12) + azim2(10,12) >= 0
 azim2c(10,13,11,12)__le: - azim(11,12) + azim2(13,12) <= 0
 azim2c(10,13,11,12)__ge: - azim(11,12) + azim2(13,12) >= 0
 azim2c(13,11,10,12)__le: - azim(10,12) + azim2(11,12) <= 0
 azim2c(13,11,10,12)__ge: - azim(10,12) + azim2(11,12) >= 0
 azim2c(13,10,8,13)__le: - azim(8,13) + azim2(10,13) <= 0
 azim2c(13,10,8,13)__ge: - azim(8,13) + azim2(10,13) >= 0
 azim2c(10,8,13,13)__le: - azim(13,13) + azim2(8,13) <= 0
 azim2c(10,8,13,13)__ge: - azim(13,13) + azim2(8,13) >= 0
 azim2c(8,13,10,13)__le: - azim(10,13) + azim2(13,13) <= 0
 azim2c(8,13,10,13)__ge: - azim(10,13) + azim2(13,13) >= 0
 azim2c(13,8,9,14)__le: - azim(9,14) + azim2(8,14) <= 0
 azim2c(13,8,9,14)__ge: - azim(9,14) + azim2(8,14) >= 0
 azim2c(8,9,13,14)__le: - azim(13,14) + azim2(9,14) <= 0
 azim2c(8,9,13,14)__ge: - azim(13,14) + azim2(9,14) >= 0
 azim2c(9,13,8,14)__le: - azim(8,14) + azim2(13,14) <= 0
 azim2c(9,13,8,14)__ge: - azim(8,14) + azim2(13,14) >= 0
 azim2c(13,9,14,15)__le: - azim(14,15) + azim2(9,15) <= 0
 azim2c(13,9,14,15)__ge: - azim(14,15) + azim2(9,15) >= 0
 azim2c(9,14,13,15)__le: - azim(13,15) + azim2(14,15) <= 0
 azim2c(9,14,13,15)__ge: - azim(13,15) + azim2(14,15) >= 0
 azim2c(14,13,9,15)__le: - azim(9,15) + azim2(13,15) <= 0
 azim2c(14,13,9,15)__ge: - azim(9,15) + azim2(13,15) >= 0
 azim2c(14,9,12,16)__le: - azim(12,16) + azim2(9,16) <= 0
 azim2c(14,9,12,16)__ge: - azim(12,16) + azim2(9,16) >= 0
 azim2c(9,12,14,16)__le: - azim(14,16) + azim2(12,16) <= 0
 azim2c(9,12,14,16)__ge: - azim(14,16) + azim2(12,16) >= 0
 azim2c(12,14,9,16)__le: - azim(9,16) + azim2(14,16) <= 0
 azim2c(12,14,9,16)__ge: - azim(9,16) + azim2(14,16) >= 0
 azim2c(14,12,7,17)__le: - azim(7,17) + azim2(12,17) <= 0
 azim2c(14,12,7,17)__ge: - azim(7,17) + azim2(12,17) >= 0
 azim2c(12,7,14,17)__le: - azim(14,17) + azim2(7,17) <= 0
 azim2c(12,7,14,17)__ge: - azim(14,17) + azim2(7,17) >= 0
 azim2c(7,14,12,17)__le: - azim(12,17) + azim2(14,17) <= 0
 azim2c(7,14,12,17)__ge: - azim(12,17) + azim2(14,17) >= 0
 azim2c(14,7,11,18)__le: - azim(11,18) + azim2(7,18) <= 0
 azim2c(14,7,11,18)__ge: - azim(11,18) + azim2(7,18) >= 0
 azim2c(7,11,14,18)__le: - azim(14,18) + azim2(11,18) <= 0
 azim2c(7,11,14,18)__ge: - azim(14,18) + azim2(11,18) >= 0
 azim2c(11,14,7,18)__le: - azim(7,18) + azim2(14,18) <= 0
 azim2c(11,14,7,18)__ge: - azim(7,18) + azim2(14,18) >= 0
 azim2c(11,13,14,19)__le: - azim(14,19) + azim2(13,19) <= 0
 azim2c(11,13,14,19)__ge: - azim(14,19) + azim2(13,19) >= 0
 azim2c(13,14,11,19)__le: - azim(11,19) + azim2(14,19) <= 0
 azim2c(13,14,11,19)__ge: - azim(11,19) + azim2(14,19) >= 0
 azim2c(14,11,13,19)__le: - azim(13,19) + azim2(11,19) <= 0
 azim2c(14,11,13,19)__ge: - azim(13,19) + azim2(11,19) >= 0
 azim2c(6,3,2,20)__le: - azim(2,20) + azim2(3,20) <= 0
 azim2c(6,3,2,20)__ge: - azim(2,20) + azim2(3,20) >= 0
 azim2c(3,2,6,20)__le: - azim(6,20) + azim2(2,20) <= 0
 azim2c(3,2,6,20)__ge: - azim(6,20) + azim2(2,20) >= 0
 azim2c(2,6,3,20)__le: - azim(3,20) + azim2(6,20) <= 0
 azim2c(2,6,3,20)__ge: - azim(3,20) + azim2(6,20) >= 0
 azim3c(1,0,8,5)__le: - azim(1,5) + azim3(0,5) <= 0
 azim3c(1,0,8,5)__ge: - azim(1,5) + azim3(0,5) >= 0
 azim3c(0,8,1,5)__le: - azim(0,5) + azim3(8,5) <= 0
 azim3c(0,8,1,5)__ge: - azim(0,5) + azim3(8,5) >= 0
 azim3c(8,1,0,5)__le: - azim(8,5) + azim3(1,5) <= 0
 azim3c(8,1,0,5)__ge: - azim(8,5) + azim3(1,5) >= 0
 azim3c(10,2,1,6)__le: - azim(10,6) + azim3(2,6) <= 0
 azim3c(10,2,1,6)__ge: - azim(10,6) + azim3(2,6) >= 0
 azim3c(2,1,10,6)__le: - azim(2,6) + azim3(1,6) <= 0
 azim3c(2,1,10,6)__ge: - azim(2,6) + azim3(1,6) >= 0
 azim3c(1,10,2,6)__le: - azim(1,6) + azim3(10,6) <= 0
 azim3c(1,10,2,6)__ge: - azim(1,6) + azim3(10,6) >= 0
 azim3c(10,1,8,7)__le: - azim(10,7) + azim3(1,7) <= 0
 azim3c(10,1,8,7)__ge: - azim(10,7) + azim3(1,7) >= 0
 azim3c(1,8,10,7)__le: - azim(1,7) + azim3(8,7) <= 0
 azim3c(1,8,10,7)__ge: - azim(1,7) + azim3(8,7) >= 0
 azim3c(8,10,1,7)__le: - azim(8,7) + azim3(10,7) <= 0
 azim3c(8,10,1,7)__ge: - azim(8,7) + azim3(10,7) >= 0
 azim3c(7,6,11,8)__le: - azim(7,8) + azim3(6,8) <= 0
 azim3c(7,6,11,8)__ge: - azim(7,8) + azim3(6,8) >= 0
 azim3c(6,11,7,8)__le: - azim(6,8) + azim3(11,8) <= 0
 azim3c(6,11,7,8)__ge: - azim(6,8) + azim3(11,8) >= 0
 azim3c(11,7,6,8)__le: - azim(11,8) + azim3(7,8) <= 0
 azim3c(11,7,6,8)__ge: - azim(11,8) + azim3(7,8) >= 0
 azim3c(9,5,12,9)__le: - azim(9,9) + azim3(5,9) <= 0
 azim3c(9,5,12,9)__ge: - azim(9,9) + azim3(5,9) >= 0
 azim3c(5,12,9,9)__le: - azim(5,9) + azim3(12,9) <= 0
 azim3c(5,12,9,9)__ge: - azim(5,9) + azim3(12,9) >= 0
 azim3c(12,9,5,9)__le: - azim(12,9) + azim3(9,9) <= 0
 azim3c(12,9,5,9)__ge: - azim(12,9) + azim3(9,9) >= 0
 azim3c(12,5,4,10)__le: - azim(12,10) + azim3(5,10) <= 0
 azim3c(12,5,4,10)__ge: - azim(12,10) + azim3(5,10) >= 0
 azim3c(5,4,12,10)__le: - azim(5,10) + azim3(4,10) <= 0
 azim3c(5,4,12,10)__ge: - azim(5,10) + azim3(4,10) >= 0
 azim3c(4,12,5,10)__le: - azim(4,10) + azim3(12,10) <= 0
 azim3c(4,12,5,10)__ge: - azim(4,10) + azim3(12,10) >= 0
 azim3c(12,4,7,11)__le: - azim(12,11) + azim3(4,11) <= 0
 azim3c(12,4,7,11)__ge: - azim(12,11) + azim3(4,11) >= 0
 azim3c(4,7,12,11)__le: - azim(4,11) + azim3(7,11) <= 0
 azim3c(4,7,12,11)__ge: - azim(4,11) + azim3(7,11) >= 0
 azim3c(7,12,4,11)__le: - azim(7,11) + azim3(12,11) <= 0
 azim3c(7,12,4,11)__ge: - azim(7,11) + azim3(12,11) >= 0
 azim3c(11,10,13,12)__le: - azim(11,12) + azim3(10,12) <= 0
 azim3c(11,10,13,12)__ge: - azim(11,12) + azim3(10,12) >= 0
 azim3c(10,13,11,12)__le: - azim(10,12) + azim3(13,12) <= 0
 azim3c(10,13,11,12)__ge: - azim(10,12) + azim3(13,12) >= 0
 azim3c(13,11,10,12)__le: - azim(13,12) + azim3(11,12) <= 0
 azim3c(13,11,10,12)__ge: - azim(13,12) + azim3(11,12) >= 0
 azim3c(13,10,8,13)__le: - azim(13,13) + azim3(10,13) <= 0
 azim3c(13,10,8,13)__ge: - azim(13,13) + azim3(10,13) >= 0
 azim3c(10,8,13,13)__le: - azim(10,13) + azim3(8,13) <= 0
 azim3c(10,8,13,13)__ge: - azim(10,13) + azim3(8,13) >= 0
 azim3c(8,13,10,13)__le: - azim(8,13) + azim3(13,13) <= 0
 azim3c(8,13,10,13)__ge: - azim(8,13) + azim3(13,13) >= 0
 azim3c(13,8,9,14)__le: - azim(13,14) + azim3(8,14) <= 0
 azim3c(13,8,9,14)__ge: - azim(13,14) + azim3(8,14) >= 0
 azim3c(8,9,13,14)__le: - azim(8,14) + azim3(9,14) <= 0
 azim3c(8,9,13,14)__ge: - azim(8,14) + azim3(9,14) >= 0
 azim3c(9,13,8,14)__le: - azim(9,14) + azim3(13,14) <= 0
 azim3c(9,13,8,14)__ge: - azim(9,14) + azim3(13,14) >= 0
 azim3c(13,9,14,15)__le: - azim(13,15) + azim3(9,15) <= 0
 azim3c(13,9,14,15)__ge: - azim(13,15) + azim3(9,15) >= 0
 azim3c(9,14,13,15)__le: - azim(9,15) + azim3(14,15) <= 0
 azim3c(9,14,13,15)__ge: - azim(9,15) + azim3(14,15) >= 0
 azim3c(14,13,9,15)__le: - azim(14,15) + azim3(13,15) <= 0
 azim3c(14,13,9,15)__ge: - azim(14,15) + azim3(13,15) >= 0
 azim3c(14,9,12,16)__le: - azim(14,16) + azim3(9,16) <= 0
 azim3c(14,9,12,16)__ge: - azim(14,16) + azim3(9,16) >= 0
 azim3c(9,12,14,16)__le: - azim(9,16) + azim3(12,16) <= 0
 azim3c(9,12,14,16)__ge: - azim(9,16) + azim3(12,16) >= 0
 azim3c(12,14,9,16)__le: - azim(12,16) + azim3(14,16) <= 0
 azim3c(12,14,9,16)__ge: - azim(12,16) + azim3(14,16) >= 0
 azim3c(14,12,7,17)__le: - azim(14,17) + azim3(12,17) <= 0
 azim3c(14,12,7,17)__ge: - azim(14,17) + azim3(12,17) >= 0
 azim3c(12,7,14,17)__le: - azim(12,17) + azim3(7,17) <= 0
 azim3c(12,7,14,17)__ge: - azim(12,17) + azim3(7,17) >= 0
 azim3c(7,14,12,17)__le: - azim(7,17) + azim3(14,17) <= 0
 azim3c(7,14,12,17)__ge: - azim(7,17) + azim3(14,17) >= 0
 azim3c(14,7,11,18)__le: - azim(14,18) + azim3(7,18) <= 0
 azim3c(14,7,11,18)__ge: - azim(14,18) + azim3(7,18) >= 0
 azim3c(7,11,14,18)__le: - azim(7,18) + azim3(11,18) <= 0
 azim3c(7,11,14,18)__ge: - azim(7,18) + azim3(11,18) >= 0
 azim3c(11,14,7,18)__le: - azim(11,18) + azim3(14,18) <= 0
 azim3c(11,14,7,18)__ge: - azim(11,18) + azim3(14,18) >= 0
 azim3c(11,13,14,19)__le: - azim(11,19) + azim3(13,19) <= 0
 azim3c(11,13,14,19)__ge: - azim(11,19) + azim3(13,19) >= 0
 azim3c(13,14,11,19)__le: - azim(13,19) + azim3(14,19) <= 0
 azim3c(13,14,11,19)__ge: - azim(13,19) + azim3(14,19) >= 0
 azim3c(14,11,13,19)__le: - azim(14,19) + azim3(11,19) <= 0
 azim3c(14,11,13,19)__ge: - azim(14,19) + azim3(11,19) >= 0
 azim3c(6,3,2,20)__le: - azim(6,20) + azim3(3,20) <= 0
 azim3c(6,3,2,20)__ge: - azim(6,20) + azim3(3,20) >= 0
 azim3c(3,2,6,20)__le: - azim(3,20) + azim3(2,20) <= 0
 azim3c(3,2,6,20)__ge: - azim(3,20) + azim3(2,20) >= 0
 azim3c(2,6,3,20)__le: - azim(2,20) + azim3(6,20) <= 0
 azim3c(2,6,3,20)__ge: - azim(2,20) + azim3(6,20) >= 0
 rhazim2c(1,0,8,5)__le: - rhazim(8,5) + rhazim2(0,5) <= 0
 rhazim2c(1,0,8,5)__ge: - rhazim(8,5) + rhazim2(0,5) >= 0
 rhazim2c(0,8,1,5)__le: - rhazim(1,5) + rhazim2(8,5) <= 0
 rhazim2c(0,8,1,5)__ge: - rhazim(1,5) + rhazim2(8,5) >= 0
 rhazim2c(8,1,0,5)__le: - rhazim(0,5) + rhazim2(1,5) <= 0
 rhazim2c(8,1,0,5)__ge: - rhazim(0,5) + rhazim2(1,5) >= 0
 rhazim2c(10,2,1,6)__le: - rhazim(1,6) + rhazim2(2,6) <= 0
 rhazim2c(10,2,1,6)__ge: - rhazim(1,6) + rhazim2(2,6) >= 0
 rhazim2c(2,1,10,6)__le: - rhazim(10,6) + rhazim2(1,6) <= 0
 rhazim2c(2,1,10,6)__ge: - rhazim(10,6) + rhazim2(1,6) >= 0
 rhazim2c(1,10,2,6)__le: - rhazim(2,6) + rhazim2(10,6) <= 0
 rhazim2c(1,10,2,6)__ge: - rhazim(2,6) + rhazim2(10,6) >= 0
 rhazim2c(10,1,8,7)__le: - rhazim(8,7) + rhazim2(1,7) <= 0
 rhazim2c(10,1,8,7)__ge: - rhazim(8,7) + rhazim2(1,7) >= 0
 rhazim2c(1,8,10,7)__le: - rhazim(10,7) + rhazim2(8,7) <= 0
 rhazim2c(1,8,10,7)__ge: - rhazim(10,7) + rhazim2(8,7) >= 0
 rhazim2c(8,10,1,7)__le: - rhazim(1,7) + rhazim2(10,7) <= 0
 rhazim2c(8,10,1,7)__ge: - rhazim(1,7) + rhazim2(10,7) >= 0
 rhazim2c(7,6,11,8)__le: - rhazim(11,8) + rhazim2(6,8) <= 0
 rhazim2c(7,6,11,8)__ge: - rhazim(11,8) + rhazim2(6,8) >= 0
 rhazim2c(6,11,7,8)__le: - rhazim(7,8) + rhazim2(11,8) <= 0
 rhazim2c(6,11,7,8)__ge: - rhazim(7,8) + rhazim2(11,8) >= 0
 rhazim2c(11,7,6,8)__le: - rhazim(6,8) + rhazim2(7,8) <= 0
 rhazim2c(11,7,6,8)__ge: - rhazim(6,8) + rhazim2(7,8) >= 0
 rhazim2c(9,5,12,9)__le: - rhazim(12,9) + rhazim2(5,9) <= 0
 rhazim2c(9,5,12,9)__ge: - rhazim(12,9) + rhazim2(5,9) >= 0
 rhazim2c(5,12,9,9)__le: - rhazim(9,9) + rhazim2(12,9) <= 0
 rhazim2c(5,12,9,9)__ge: - rhazim(9,9) + rhazim2(12,9) >= 0
 rhazim2c(12,9,5,9)__le: - rhazim(5,9) + rhazim2(9,9) <= 0
 rhazim2c(12,9,5,9)__ge: - rhazim(5,9) + rhazim2(9,9) >= 0
 rhazim2c(12,5,4,10)__le: - rhazim(4,10) + rhazim2(5,10) <= 0
 rhazim2c(12,5,4,10)__ge: - rhazim(4,10) + rhazim2(5,10) >= 0
 rhazim2c(5,4,12,10)__le: - rhazim(12,10) + rhazim2(4,10) <= 0
 rhazim2c(5,4,12,10)__ge: - rhazim(12,10) + rhazim2(4,10) >= 0
 rhazim2c(4,12,5,10)__le: - rhazim(5,10) + rhazim2(12,10) <= 0
 rhazim2c(4,12,5,10)__ge: - rhazim(5,10) + rhazim2(12,10) >= 0
 rhazim2c(12,4,7,11)__le: - rhazim(7,11) + rhazim2(4,11) <= 0
 rhazim2c(12,4,7,11)__ge: - rhazim(7,11) + rhazim2(4,11) >= 0
 rhazim2c(4,7,12,11)__le: - rhazim(12,11) + rhazim2(7,11) <= 0
 rhazim2c(4,7,12,11)__ge: - rhazim(12,11) + rhazim2(7,11) >= 0
 rhazim2c(7,12,4,11)__le: - rhazim(4,11) + rhazim2(12,11) <= 0
 rhazim2c(7,12,4,11)__ge: - rhazim(4,11) + rhazim2(12,11) >= 0
 rhazim2c(11,10,13,12)__le: - rhazim(13,12) + rhazim2(10,12) <= 0
 rhazim2c(11,10,13,12)__ge: - rhazim(13,12) + rhazim2(10,12) >= 0
 rhazim2c(10,13,11,12)__le: - rhazim(11,12) + rhazim2(13,12) <= 0
 rhazim2c(10,13,11,12)__ge: - rhazim(11,12) + rhazim2(13,12) >= 0
 rhazim2c(13,11,10,12)__le: - rhazim(10,12) + rhazim2(11,12) <= 0
 rhazim2c(13,11,10,12)__ge: - rhazim(10,12) + rhazim2(11,12) >= 0
 rhazim2c(13,10,8,13)__le: - rhazim(8,13) + rhazim2(10,13) <= 0
 rhazim2c(13,10,8,13)__ge: - rhazim(8,13) + rhazim2(10,13) >= 0
 rhazim2c(10,8,13,13)__le: - rhazim(13,13) + rhazim2(8,13) <= 0
 rhazim2c(10,8,13,13)__ge: - rhazim(13,13) + rhazim2(8,13) >= 0
 rhazim2c(8,13,10,13)__le: - rhazim(10,13) + rhazim2(13,13) <= 0
 rhazim2c(8,13,10,13)__ge: - rhazim(10,13) + rhazim2(13,13) >= 0
 rhazim2c(13,8,9,14)__le: - rhazim(9,14) + rhazim2(8,14) <= 0
 rhazim2c(13,8,9,14)__ge: - rhazim(9,14) + rhazim2(8,14) >= 0
 rhazim2c(8,9,13,14)__le: - rhazim(13,14) + rhazim2(9,14) <= 0
 rhazim2c(8,9,13,14)__ge: - rhazim(13,14) + rhazim2(9,14) >= 0
 rhazim2c(9,13,8,14)__le: - rhazim(8,14) + rhazim2(13,14) <= 0
 rhazim2c(9,13,8,14)__ge: - rhazim(8,14) + rhazim2(13,14) >= 0
 rhazim2c(13,9,14,15)__le: - rhazim(14,15) + rhazim2(9,15) <= 0
 rhazim2c(13,9,14,15)__ge: - rhazim(14,15) + rhazim2(9,15) >= 0
 rhazim2c(9,14,13,15)__le: - rhazim(13,15) + rhazim2(14,15) <= 0
 rhazim2c(9,14,13,15)__ge: - rhazim(13,15) + rhazim2(14,15) >= 0
 rhazim2c(14,13,9,15)__le: - rhazim(9,15) + rhazim2(13,15) <= 0
 rhazim2c(14,13,9,15)__ge: - rhazim(9,15) + rhazim2(13,15) >= 0
 rhazim2c(14,9,12,16)__le: - rhazim(12,16) + rhazim2(9,16) <= 0
 rhazim2c(14,9,12,16)__ge: - rhazim(12,16) + rhazim2(9,16) >= 0
 rhazim2c(9,12,14,16)__le: - rhazim(14,16) + rhazim2(12,16) <= 0
 rhazim2c(9,12,14,16)__ge: - rhazim(14,16) + rhazim2(12,16) >= 0
 rhazim2c(12,14,9,16)__le: - rhazim(9,16) + rhazim2(14,16) <= 0
 rhazim2c(12,14,9,16)__ge: - rhazim(9,16) + rhazim2(14,16) >= 0
 rhazim2c(14,12,7,17)__le: - rhazim(7,17) + rhazim2(12,17) <= 0
 rhazim2c(14,12,7,17)__ge: - rhazim(7,17) + rhazim2(12,17) >= 0
 rhazim2c(12,7,14,17)__le: - rhazim(14,17) + rhazim2(7,17) <= 0
 rhazim2c(12,7,14,17)__ge: - rhazim(14,17) + rhazim2(7,17) >= 0
 rhazim2c(7,14,12,17)__le: - rhazim(12,17) + rhazim2(14,17) <= 0
 rhazim2c(7,14,12,17)__ge: - rhazim(12,17) + rhazim2(14,17) >= 0
 rhazim2c(14,7,11,18)__le: - rhazim(11,18) + rhazim2(7,18) <= 0
 rhazim2c(14,7,11,18)__ge: - rhazim(11,18) + rhazim2(7,18) >= 0
 rhazim2c(7,11,14,18)__le: - rhazim(14,18) + rhazim2(11,18) <= 0
 rhazim2c(7,11,14,18)__ge: - rhazim(14,18) + rhazim2(11,18) >= 0
 rhazim2c(11,14,7,18)__le: - rhazim(7,18) + rhazim2(14,18) <= 0
 rhazim2c(11,14,7,18)__ge: - rhazim(7,18) + rhazim2(14,18) >= 0
 rhazim2c(11,13,14,19)__le: - rhazim(14,19) + rhazim2(13,19) <= 0
 rhazim2c(11,13,14,19)__ge: - rhazim(14,19) + rhazim2(13,19) >= 0
 rhazim2c(13,14,11,19)__le: - rhazim(11,19) + rhazim2(14,19) <= 0
 rhazim2c(13,14,11,19)__ge: - rhazim(11,19) + rhazim2(14,19) >= 0
 rhazim2c(14,11,13,19)__le: - rhazim(13,19) + rhazim2(11,19) <= 0
 rhazim2c(14,11,13,19)__ge: - rhazim(13,19) + rhazim2(11,19) >= 0
 rhazim2c(6,3,2,20)__le: - rhazim(2,20) + rhazim2(3,20) <= 0
 rhazim2c(6,3,2,20)__ge: - rhazim(2,20) + rhazim2(3,20) >= 0
 rhazim2c(3,2,6,20)__le: - rhazim(6,20) + rhazim2(2,20) <= 0
 rhazim2c(3,2,6,20)__ge: - rhazim(6,20) + rhazim2(2,20) >= 0
 rhazim2c(2,6,3,20)__le: - rhazim(3,20) + rhazim2(6,20) <= 0
 rhazim2c(2,6,3,20)__ge: - rhazim(3,20) + rhazim2(6,20) >= 0
 rhazim3c(1,0,8,5)__le: - rhazim(1,5) + rhazim3(0,5) <= 0
 rhazim3c(1,0,8,5)__ge: - rhazim(1,5) + rhazim3(0,5) >= 0
 rhazim3c(0,8,1,5)__le: - rhazim(0,5) + rhazim3(8,5) <= 0
 rhazim3c(0,8,1,5)__ge: - rhazim(0,5) + rhazim3(8,5) >= 0
 rhazim3c(8,1,0,5)__le: - rhazim(8,5) + rhazim3(1,5) <= 0
 rhazim3c(8,1,0,5)__ge: - rhazim(8,5) + rhazim3(1,5) >= 0
 rhazim3c(10,2,1,6)__le: - rhazim(10,6) + rhazim3(2,6) <= 0
 rhazim3c(10,2,1,6)__ge: - rhazim(10,6) + rhazim3(2,6) >= 0
 rhazim3c(2,1,10,6)__le: - rhazim(2,6) + rhazim3(1,6) <= 0
 rhazim3c(2,1,10,6)__ge: - rhazim(2,6) + rhazim3(1,6) >= 0
 rhazim3c(1,10,2,6)__le: - rhazim(1,6) + rhazim3(10,6) <= 0
 rhazim3c(1,10,2,6)__ge: - rhazim(1,6) + rhazim3(10,6) >= 0
 rhazim3c(10,1,8,7)__le: - rhazim(10,7) + rhazim3(1,7) <= 0
 rhazim3c(10,1,8,7)__ge: - rhazim(10,7) + rhazim3(1,7) >= 0
 rhazim3c(1,8,10,7)__le: - rhazim(1,7) + rhazim3(8,7) <= 0
 rhazim3c(1,8,10,7)__ge: - rhazim(1,7) + rhazim3(8,7) >= 0
 rhazim3c(8,10,1,7)__le: - rhazim(8,7) + rhazim3(10,7) <= 0
 rhazim3c(8,10,1,7)__ge: - rhazim(8,7) + rhazim3(10,7) >= 0
 rhazim3c(7,6,11,8)__le: - rhazim(7,8) + rhazim3(6,8) <= 0
 rhazim3c(7,6,11,8)__ge: - rhazim(7,8) + rhazim3(6,8) >= 0
 rhazim3c(6,11,7,8)__le: - rhazim(6,8) + rhazim3(11,8) <= 0
 rhazim3c(6,11,7,8)__ge: - rhazim(6,8) + rhazim3(11,8) >= 0
 rhazim3c(11,7,6,8)__le: - rhazim(11,8) + rhazim3(7,8) <= 0
 rhazim3c(11,7,6,8)__ge: - rhazim(11,8) + rhazim3(7,8) >= 0
 rhazim3c(9,5,12,9)__le: - rhazim(9,9) + rhazim3(5,9) <= 0
 rhazim3c(9,5,12,9)__ge: - rhazim(9,9) + rhazim3(5,9) >= 0
 rhazim3c(5,12,9,9)__le: - rhazim(5,9) + rhazim3(12,9) <= 0
 rhazim3c(5,12,9,9)__ge: - rhazim(5,9) + rhazim3(12,9) >= 0
 rhazim3c(12,9,5,9)__le: - rhazim(12,9) + rhazim3(9,9) <= 0
 rhazim3c(12,9,5,9)__ge: - rhazim(12,9) + rhazim3(9,9) >= 0
 rhazim3c(12,5,4,10)__le: - rhazim(12,10) + rhazim3(5,10) <= 0
 rhazim3c(12,5,4,10)__ge: - rhazim(12,10) + rhazim3(5,10) >= 0
 rhazim3c(5,4,12,10)__le: - rhazim(5,10) + rhazim3(4,10) <= 0
 rhazim3c(5,4,12,10)__ge: - rhazim(5,10) + rhazim3(4,10) >= 0
 rhazim3c(4,12,5,10)__le: - rhazim(4,10) + rhazim3(12,10) <= 0
 rhazim3c(4,12,5,10)__ge: - rhazim(4,10) + rhazim3(12,10) >= 0
 rhazim3c(12,4,7,11)__le: - rhazim(12,11) + rhazim3(4,11) <= 0
 rhazim3c(12,4,7,11)__ge: - rhazim(12,11) + rhazim3(4,11) >= 0
 rhazim3c(4,7,12,11)__le: - rhazim(4,11) + rhazim3(7,11) <= 0
 rhazim3c(4,7,12,11)__ge: - rhazim(4,11) + rhazim3(7,11) >= 0
 rhazim3c(7,12,4,11)__le: - rhazim(7,11) + rhazim3(12,11) <= 0
 rhazim3c(7,12,4,11)__ge: - rhazim(7,11) + rhazim3(12,11) >= 0
 rhazim3c(11,10,13,12)__le: - rhazim(11,12) + rhazim3(10,12) <= 0
 rhazim3c(11,10,13,12)__ge: - rhazim(11,12) + rhazim3(10,12) >= 0
 rhazim3c(10,13,11,12)__le: - rhazim(10,12) + rhazim3(13,12) <= 0
 rhazim3c(10,13,11,12)__ge: - rhazim(10,12) + rhazim3(13,12) >= 0
 rhazim3c(13,11,10,12)__le: - rhazim(13,12) + rhazim3(11,12) <= 0
 rhazim3c(13,11,10,12)__ge: - rhazim(13,12) + rhazim3(11,12) >= 0
 rhazim3c(13,10,8,13)__le: - rhazim(13,13) + rhazim3(10,13) <= 0
 rhazim3c(13,10,8,13)__ge: - rhazim(13,13) + rhazim3(10,13) >= 0
 rhazim3c(10,8,13,13)__le: - rhazim(10,13) + rhazim3(8,13) <= 0
 rhazim3c(10,8,13,13)__ge: - rhazim(10,13) + rhazim3(8,13) >= 0
 rhazim3c(8,13,10,13)__le: - rhazim(8,13) + rhazim3(13,13) <= 0
 rhazim3c(8,13,10,13)__ge: - rhazim(8,13) + rhazim3(13,13) >= 0
 rhazim3c(13,8,9,14)__le: - rhazim(13,14) + rhazim3(8,14) <= 0
 rhazim3c(13,8,9,14)__ge: - rhazim(13,14) + rhazim3(8,14) >= 0
 rhazim3c(8,9,13,14)__le: - rhazim(8,14) + rhazim3(9,14) <= 0
 rhazim3c(8,9,13,14)__ge: - rhazim(8,14) + rhazim3(9,14) >= 0
 rhazim3c(9,13,8,14)__le: - rhazim(9,14) + rhazim3(13,14) <= 0
 rhazim3c(9,13,8,14)__ge: - rhazim(9,14) + rhazim3(13,14) >= 0
 rhazim3c(13,9,14,15)__le: - rhazim(13,15) + rhazim3(9,15) <= 0
 rhazim3c(13,9,14,15)__ge: - rhazim(13,15) + rhazim3(9,15) >= 0
 rhazim3c(9,14,13,15)__le: - rhazim(9,15) + rhazim3(14,15) <= 0
 rhazim3c(9,14,13,15)__ge: - rhazim(9,15) + rhazim3(14,15) >= 0
 rhazim3c(14,13,9,15)__le: - rhazim(14,15) + rhazim3(13,15) <= 0
 rhazim3c(14,13,9,15)__ge: - rhazim(14,15) + rhazim3(13,15) >= 0
 rhazim3c(14,9,12,16)__le: - rhazim(14,16) + rhazim3(9,16) <= 0
 rhazim3c(14,9,12,16)__ge: - rhazim(14,16) + rhazim3(9,16) >= 0
 rhazim3c(9,12,14,16)__le: - rhazim(9,16) + rhazim3(12,16) <= 0
 rhazim3c(9,12,14,16)__ge: - rhazim(9,16) + rhazim3(12,16) >= 0
 rhazim3c(12,14,9,16)__le: - rhazim(12,16) + rhazim3(14,16) <= 0
 rhazim3c(12,14,9,16)__ge: - rhazim(12,16) + rhazim3(14,16) >= 0
 rhazim3c(14,12,7,17)__le: - rhazim(14,17) + rhazim3(12,17) <= 0
 rhazim3c(14,12,7,17)__ge: - rhazim(14,17) + rhazim3(12,17) >= 0
 rhazim3c(12,7,14,17)__le: - rhazim(12,17) + rhazim3(7,17) <= 0
 rhazim3c(12,7,14,17)__ge: - rhazim(12,17) + rhazim3(7,17) >= 0
 rhazim3c(7,14,12,17)__le: - rhazim(7,17) + rhazim3(14,17) <= 0
 rhazim3c(7,14,12,17)__ge: - rhazim(7,17) + rhazim3(14,17) >= 0
 rhazim3c(14,7,11,18)__le: - rhazim(14,18) + rhazim3(7,18) <= 0
 rhazim3c(14,7,11,18)__ge: - rhazim(14,18) + rhazim3(7,18) >= 0
 rhazim3c(7,11,14,18)__le: - rhazim(7,18) + rhazim3(11,18) <= 0
 rhazim3c(7,11,14,18)__ge: - rhazim(7,18) + rhazim3(11,18) >= 0
 rhazim3c(11,14,7,18)__le: - rhazim(11,18) + rhazim3(14,18) <= 0
 rhazim3c(11,14,7,18)__ge: - rhazim(11,18) + rhazim3(14,18) >= 0
 rhazim3c(11,13,14,19)__le: - rhazim(11,19) + rhazim3(13,19) <= 0
 rhazim3c(11,13,14,19)__ge: - rhazim(11,19) + rhazim3(13,19) >= 0
 rhazim3c(13,14,11,19)__le: - rhazim(13,19) + rhazim3(14,19) <= 0
 rhazim3c(13,14,11,19)__ge: - rhazim(13,19) + rhazim3(14,19) >= 0
 rhazim3c(14,11,13,19)__le: - rhazim(14,19) + rhazim3(11,19) <= 0
 rhazim3c(14,11,13,19)__ge: - rhazim(14,19) + rhazim3(11,19) >= 0
 rhazim3c(6,3,2,20)__le: - rhazim(6,20) + rhazim3(3,20) <= 0
 rhazim3c(6,3,2,20)__ge: - rhazim(6,20) + rhazim3(3,20) >= 0
 rhazim3c(3,2,6,20)__le: - rhazim(3,20) + rhazim3(2,20) <= 0
 rhazim3c(3,2,6,20)__ge: - rhazim(3,20) + rhazim3(2,20) >= 0
 rhazim3c(2,6,3,20)__le: - rhazim(2,20) + rhazim3(6,20) <= 0
 rhazim3c(2,6,3,20)__ge: - rhazim(2,20) + rhazim3(6,20) >= 0
 RHA(4,0): - azim(4,0) + rhazim(4,0) >= 0
 RHA(3,0): - azim(3,0) + rhazim(3,0) >= 0
 RHA(6,0): - azim(6,0) + rhazim(6,0) >= 0
 RHA(7,0): - azim(7,0) + rhazim(7,0) >= 0
 RHA(8,1): - azim(8,1) + rhazim(8,1) >= 0
 RHA(0,1): - azim(0,1) + rhazim(0,1) >= 0
 RHA(5,1): - azim(5,1) + rhazim(5,1) >= 0
 RHA(9,1): - azim(9,1) + rhazim(9,1) >= 0
 RHA(6,2): - azim(6,2) + rhazim(6,2) >= 0
 RHA(2,2): - azim(2,2) + rhazim(2,2) >= 0
 RHA(10,2): - azim(10,2) + rhazim(10,2) >= 0
 RHA(11,2): - azim(11,2) + rhazim(11,2) >= 0
 RHA(0,3): - azim(0,3) + rhazim(0,3) >= 0
 RHA(1,3): - azim(1,3) + rhazim(1,3) >= 0
 RHA(2,3): - azim(2,3) + rhazim(2,3) >= 0
 RHA(3,3): - azim(3,3) + rhazim(3,3) >= 0
 RHA(0,4): - azim(0,4) + rhazim(0,4) >= 0
 RHA(3,4): - azim(3,4) + rhazim(3,4) >= 0
 RHA(4,4): - azim(4,4) + rhazim(4,4) >= 0
 RHA(5,4): - azim(5,4) + rhazim(5,4) >= 0
 RHA(1,5): - azim(1,5) + rhazim(1,5) >= 0
 RHA(0,5): - azim(0,5) + rhazim(0,5) >= 0
 RHA(8,5): - azim(8,5) + rhazim(8,5) >= 0
 RHA(10,6): - azim(10,6) + rhazim(10,6) >= 0
 RHA(2,6): - azim(2,6) + rhazim(2,6) >= 0
 RHA(1,6): - azim(1,6) + rhazim(1,6) >= 0
 RHA(10,7): - azim(10,7) + rhazim(10,7) >= 0
 RHA(1,7): - azim(1,7) + rhazim(1,7) >= 0
 RHA(8,7): - azim(8,7) + rhazim(8,7) >= 0
 RHA(7,8): - azim(7,8) + rhazim(7,8) >= 0
 RHA(6,8): - azim(6,8) + rhazim(6,8) >= 0
 RHA(11,8): - azim(11,8) + rhazim(11,8) >= 0
 RHA(9,9): - azim(9,9) + rhazim(9,9) >= 0
 RHA(5,9): - azim(5,9) + rhazim(5,9) >= 0
 RHA(12,9): - azim(12,9) + rhazim(12,9) >= 0
 RHA(12,10): - azim(12,10) + rhazim(12,10) >= 0
 RHA(5,10): - azim(5,10) + rhazim(5,10) >= 0
 RHA(4,10): - azim(4,10) + rhazim(4,10) >= 0
 RHA(12,11): - azim(12,11) + rhazim(12,11) >= 0
 RHA(4,11): - azim(4,11) + rhazim(4,11) >= 0
 RHA(7,11): - azim(7,11) + rhazim(7,11) >= 0
 RHA(11,12): - azim(11,12) + rhazim(11,12) >= 0
 RHA(10,12): - azim(10,12) + rhazim(10,12) >= 0
 RHA(13,12): - azim(13,12) + rhazim(13,12) >= 0
 RHA(13,13): - azim(13,13) + rhazim(13,13) >= 0
 RHA(10,13): - azim(10,13) + rhazim(10,13) >= 0
 RHA(8,13): - azim(8,13) + rhazim(8,13) >= 0
 RHA(13,14): - azim(13,14) + rhazim(13,14) >= 0
 RHA(8,14): - azim(8,14) + rhazim(8,14) >= 0
 RHA(9,14): - azim(9,14) + rhazim(9,14) >= 0
 RHA(13,15): - azim(13,15) + rhazim(13,15) >= 0
 RHA(9,15): - azim(9,15) + rhazim(9,15) >= 0
 RHA(14,15): - azim(14,15) + rhazim(14,15) >= 0
 RHA(14,16): - azim(14,16) + rhazim(14,16) >= 0
 RHA(9,16): - azim(9,16) + rhazim(9,16) >= 0
 RHA(12,16): - azim(12,16) + rhazim(12,16) >= 0
 RHA(14,17): - azim(14,17) + rhazim(14,17) >= 0
 RHA(12,17): - azim(12,17) + rhazim(12,17) >= 0
 RHA(7,17): - azim(7,17) + rhazim(7,17) >= 0
 RHA(14,18): - azim(14,18) + rhazim(14,18) >= 0
 RHA(7,18): - azim(7,18) + rhazim(7,18) >= 0
 RHA(11,18): - azim(11,18) + rhazim(11,18) >= 0
 RHA(11,19): - azim(11,19) + rhazim(11,19) >= 0
 RHA(13,19): - azim(13,19) + rhazim(13,19) >= 0
 RHA(14,19): - azim(14,19) + rhazim(14,19) >= 0
 RHA(6,20): - azim(6,20) + rhazim(6,20) >= 0
 RHA(3,20): - azim(3,20) + rhazim(3,20) >= 0
 RHA(2,20): - azim(2,20) + rhazim(2,20) >= 0
 RHB(4,0): - 1.17547965609182 azim(4,0) + rhazim(4,0) <= 0
 RHB(3,0): - 1.17547965609182 azim(3,0) + rhazim(3,0) <= 0
 RHB(6,0): - 1.17547965609182 azim(6,0) + rhazim(6,0) <= 0
 RHB(7,0): - 1.17547965609182 azim(7,0) + rhazim(7,0) <= 0
 RHB(8,1): - 1.17547965609182 azim(8,1) + rhazim(8,1) <= 0
 RHB(0,1): - 1.17547965609182 azim(0,1) + rhazim(0,1) <= 0
 RHB(5,1): - 1.17547965609182 azim(5,1) + rhazim(5,1) <= 0
 RHB(9,1): - 1.17547965609182 azim(9,1) + rhazim(9,1) <= 0
 RHB(6,2): - 1.17547965609182 azim(6,2) + rhazim(6,2) <= 0
 RHB(2,2): - 1.17547965609182 azim(2,2) + rhazim(2,2) <= 0
 RHB(10,2): - 1.17547965609182 azim(10,2) + rhazim(10,2) <= 0
 RHB(11,2): - 1.17547965609182 azim(11,2) + rhazim(11,2) <= 0
 RHB(0,3): - 1.17547965609182 azim(0,3) + rhazim(0,3) <= 0
 RHB(1,3): - 1.17547965609182 azim(1,3) + rhazim(1,3) <= 0
 RHB(2,3): - 1.17547965609182 azim(2,3) + rhazim(2,3) <= 0
 RHB(3,3): - 1.17547965609182 azim(3,3) + rhazim(3,3) <= 0
 RHB(0,4): - 1.17547965609182 azim(0,4) + rhazim(0,4) <= 0
 RHB(3,4): - 1.17547965609182 azim(3,4) + rhazim(3,4) <= 0
 RHB(4,4): - 1.17547965609182 azim(4,4) + rhazim(4,4) <= 0
 RHB(5,4): - 1.17547965609182 azim(5,4) + rhazim(5,4) <= 0
 RHB(1,5): - 1.17547965609182 azim(1,5) + rhazim(1,5) <= 0
 RHB(0,5): - 1.17547965609182 azim(0,5) + rhazim(0,5) <= 0
 RHB(8,5): - 1.17547965609182 azim(8,5) + rhazim(8,5) <= 0
 RHB(10,6): - 1.17547965609182 azim(10,6) + rhazim(10,6) <= 0
 RHB(2,6): - 1.17547965609182 azim(2,6) + rhazim(2,6) <= 0
 RHB(1,6): - 1.17547965609182 azim(1,6) + rhazim(1,6) <= 0
 RHB(10,7): - 1.17547965609182 azim(10,7) + rhazim(10,7) <= 0
 RHB(1,7): - 1.17547965609182 azim(1,7) + rhazim(1,7) <= 0
 RHB(8,7): - 1.17547965609182 azim(8,7) + rhazim(8,7) <= 0
 RHB(7,8): - 1.17547965609182 azim(7,8) + rhazim(7,8) <= 0
 RHB(6,8): - 1.17547965609182 azim(6,8) + rhazim(6,8) <= 0
 RHB(11,8): - 1.17547965609182 azim(11,8) + rhazim(11,8) <= 0
 RHB(9,9): - 1.17547965609182 azim(9,9) + rhazim(9,9) <= 0
 RHB(5,9): - 1.17547965609182 azim(5,9) + rhazim(5,9) <= 0
 RHB(12,9): - 1.17547965609182 azim(12,9) + rhazim(12,9) <= 0
 RHB(12,10): - 1.17547965609182 azim(12,10) + rhazim(12,10) <= 0
 RHB(5,10): - 1.17547965609182 azim(5,10) + rhazim(5,10) <= 0
 RHB(4,10): - 1.17547965609182 azim(4,10) + rhazim(4,10) <= 0
 RHB(12,11): - 1.17547965609182 azim(12,11) + rhazim(12,11) <= 0
 RHB(4,11): - 1.17547965609182 azim(4,11) + rhazim(4,11) <= 0
 RHB(7,11): - 1.17547965609182 azim(7,11) + rhazim(7,11) <= 0
 RHB(11,12): - 1.17547965609182 azim(11,12) + rhazim(11,12) <= 0
 RHB(10,12): - 1.17547965609182 azim(10,12) + rhazim(10,12) <= 0
 RHB(13,12): - 1.17547965609182 azim(13,12) + rhazim(13,12) <= 0
 RHB(13,13): - 1.17547965609182 azim(13,13) + rhazim(13,13) <= 0
 RHB(10,13): - 1.17547965609182 azim(10,13) + rhazim(10,13) <= 0
 RHB(8,13): - 1.17547965609182 azim(8,13) + rhazim(8,13) <= 0
 RHB(13,14): - 1.17547965609182 azim(13,14) + rhazim(13,14) <= 0
 RHB(8,14): - 1.17547965609182 azim(8,14) + rhazim(8,14) <= 0
 RHB(9,14): - 1.17547965609182 azim(9,14) + rhazim(9,14) <= 0
 RHB(13,15): - 1.17547965609182 azim(13,15) + rhazim(13,15) <= 0
 RHB(9,15): - 1.17547965609182 azim(9,15) + rhazim(9,15) <= 0
 RHB(14,15): - 1.17547965609182 azim(14,15) + rhazim(14,15) <= 0
 RHB(14,16): - 1.17547965609182 azim(14,16) + rhazim(14,16) <= 0
 RHB(9,16): - 1.17547965609182 azim(9,16) + rhazim(9,16) <= 0
 RHB(12,16): - 1.17547965609182 azim(12,16) + rhazim(12,16) <= 0
 RHB(14,17): - 1.17547965609182 azim(14,17) + rhazim(14,17) <= 0
 RHB(12,17): - 1.17547965609182 azim(12,17) + rhazim(12,17) <= 0
 RHB(7,17): - 1.17547965609182 azim(7,17) + rhazim(7,17) <= 0
 RHB(14,18): - 1.17547965609182 azim(14,18) + rhazim(14,18) <= 0
 RHB(7,18): - 1.17547965609182 azim(7,18) + rhazim(7,18) <= 0
 RHB(11,18): - 1.17547965609182 azim(11,18) + rhazim(11,18) <= 0
 RHB(11,19): - 1.17547965609182 azim(11,19) + rhazim(11,19) <= 0
 RHB(13,19): - 1.17547965609182 azim(13,19) + rhazim(13,19) <= 0
 RHB(14,19): - 1.17547965609182 azim(14,19) + rhazim(14,19) <= 0
 RHB(6,20): - 1.17547965609182 azim(6,20) + rhazim(6,20) <= 0
 RHB(3,20): - 1.17547965609182 azim(3,20) + rhazim(3,20) <= 0
 RHB(2,20): - 1.17547965609182 azim(2,20) + rhazim(2,20) <= 0
 yy10(4,0): + ye(4,0) <= 2.52
 yy10(3,0): + ye(3,0) <= 2.52
 yy10(6,0): + ye(6,0) <= 2.52
 yy10(7,0): + ye(7,0) <= 2.52
 yy10(8,1): + ye(8,1) <= 2.52
 yy10(0,1): + ye(0,1) <= 2.52
 yy10(5,1): + ye(5,1) <= 2.52
 yy10(9,1): + ye(9,1) <= 2.52
 yy10(6,2): + ye(6,2) <= 2.52
 yy10(2,2): + ye(2,2) <= 2.52
 yy10(10,2): + ye(10,2) <= 2.52
 yy10(11,2): + ye(11,2) <= 2.52
 yy10(0,3): + ye(0,3) <= 2.52
 yy10(1,3): + ye(1,3) <= 2.52
 yy10(2,3): + ye(2,3) <= 2.52
 yy10(3,3): + ye(3,3) <= 2.52
 yy10(0,4): + ye(0,4) <= 2.52
 yy10(3,4): + ye(3,4) <= 2.52
 yy10(4,4): + ye(4,4) <= 2.52
 yy10(5,4): + ye(5,4) <= 2.52
 yy10(1,5): + ye(1,5) <= 2.52
 yy10(0,5): + ye(0,5) <= 2.52
 yy10(8,5): + ye(8,5) <= 2.52
 yy10(10,6): + ye(10,6) <= 2.52
 yy10(2,6): + ye(2,6) <= 2.52
 yy10(1,6): + ye(1,6) <= 2.52
 yy10(10,7): + ye(10,7) <= 2.52
 yy10(1,7): + ye(1,7) <= 2.52
 yy10(8,7): + ye(8,7) <= 2.52
 yy10(7,8): + ye(7,8) <= 2.52
 yy10(6,8): + ye(6,8) <= 2.52
 yy10(11,8): + ye(11,8) <= 2.52
 yy10(9,9): + ye(9,9) <= 2.52
 yy10(5,9): + ye(5,9) <= 2.52
 yy10(12,9): + ye(12,9) <= 2.52
 yy10(12,10): + ye(12,10) <= 2.52
 yy10(5,10): + ye(5,10) <= 2.52
 yy10(4,10): + ye(4,10) <= 2.52
 yy10(12,11): + ye(12,11) <= 2.52
 yy10(4,11): + ye(4,11) <= 2.52
 yy10(7,11): + ye(7,11) <= 2.52
 yy10(11,12): + ye(11,12) <= 2.52
 yy10(10,12): + ye(10,12) <= 2.52
 yy10(13,12): + ye(13,12) <= 2.52
 yy10(13,13): + ye(13,13) <= 2.52
 yy10(10,13): + ye(10,13) <= 2.52
 yy10(8,13): + ye(8,13) <= 2.52
 yy10(13,14): + ye(13,14) <= 2.52
 yy10(8,14): + ye(8,14) <= 2.52
 yy10(9,14): + ye(9,14) <= 2.52
 yy10(13,15): + ye(13,15) <= 2.52
 yy10(9,15): + ye(9,15) <= 2.52
 yy10(14,15): + ye(14,15) <= 2.52
 yy10(14,16): + ye(14,16) <= 2.52
 yy10(9,16): + ye(9,16) <= 2.52
 yy10(12,16): + ye(12,16) <= 2.52
 yy10(14,17): + ye(14,17) <= 2.52
 yy10(12,17): + ye(12,17) <= 2.52
 yy10(7,17): + ye(7,17) <= 2.52
 yy10(14,18): + ye(14,18) <= 2.52
 yy10(7,18): + ye(7,18) <= 2.52
 yy10(11,18): + ye(11,18) <= 2.52
 yy10(11,19): + ye(11,19) <= 2.52
 yy10(13,19): + ye(13,19) <= 2.52
 yy10(14,19): + ye(14,19) <= 2.52
 yy10(6,20): + ye(6,20) <= 2.52
 yy10(3,20): + ye(3,20) <= 2.52
 yy10(2,20): + ye(2,20) <= 2.52
 yy15(1,5): + y4(1,5) <= 2.82842712474619
 yy15(0,5): + y4(0,5) <= 2.82842712474619
 yy15(8,5): + y4(8,5) <= 2.82842712474619
 yy15(10,6): + y4(10,6) <= 2.82842712474619
 yy15(2,6): + y4(2,6) <= 2.82842712474619
 yy15(1,6): + y4(1,6) <= 2.82842712474619
 yy15(10,7): + y4(10,7) <= 2.82842712474619
 yy15(1,7): + y4(1,7) <= 2.82842712474619
 yy15(8,7): + y4(8,7) <= 2.82842712474619
 yy15(7,8): + y4(7,8) <= 2.82842712474619
 yy15(6,8): + y4(6,8) <= 2.82842712474619
 yy15(11,8): + y4(11,8) <= 2.82842712474619
 yy15(9,9): + y4(9,9) <= 2.82842712474619
 yy15(5,9): + y4(5,9) <= 2.82842712474619
 yy15(12,9): + y4(12,9) <= 2.82842712474619
 yy15(12,10): + y4(12,10) <= 2.82842712474619
 yy15(5,10): + y4(5,10) <= 2.82842712474619
 yy15(4,10): + y4(4,10) <= 2.82842712474619
 yy15(12,11): + y4(12,11) <= 2.82842712474619
 yy15(4,11): + y4(4,11) <= 2.82842712474619
 yy15(7,11): + y4(7,11) <= 2.82842712474619
 yy15(11,12): + y4(11,12) <= 2.82842712474619
 yy15(10,12): + y4(10,12) <= 2.82842712474619
 yy15(13,12): + y4(13,12) <= 2.82842712474619
 yy15(13,13): + y4(13,13) <= 2.82842712474619
 yy15(10,13): + y4(10,13) <= 2.82842712474619
 yy15(8,13): + y4(8,13) <= 2.82842712474619
 yy15(13,14): + y4(13,14) <= 2.82842712474619
 yy15(8,14): + y4(8,14) <= 2.82842712474619
 yy15(9,14): + y4(9,14) <= 2.82842712474619
 yy15(13,15): + y4(13,15) <= 2.82842712474619
 yy15(9,15): + y4(9,15) <= 2.82842712474619
 yy15(14,15): + y4(14,15) <= 2.82842712474619
 yy15(14,16): + y4(14,16) <= 2.82842712474619
 yy15(9,16): + y4(9,16) <= 2.82842712474619
 yy15(12,16): + y4(12,16) <= 2.82842712474619
 yy15(14,17): + y4(14,17) <= 2.82842712474619
 yy15(12,17): + y4(12,17) <= 2.82842712474619
 yy15(7,17): + y4(7,17) <= 2.82842712474619
 yy15(14,18): + y4(14,18) <= 2.82842712474619
 yy15(7,18): + y4(7,18) <= 2.82842712474619
 yy15(11,18): + y4(11,18) <= 2.82842712474619
 yy15(11,19): + y4(11,19) <= 2.82842712474619
 yy15(13,19): + y4(13,19) <= 2.82842712474619
 yy15(14,19): + y4(14,19) <= 2.82842712474619
 yy15(6,20): + y4(6,20) <= 2.82842712474619
 yy15(3,20): + y4(3,20) <= 2.82842712474619
 yy15(2,20): + y4(2,20) <= 2.82842712474619
 tau3(5): + tau(5) >= 0
 tau3(6): + tau(6) >= 0
 tau3(7): + tau(7) >= 0
 tau3(8): + tau(8) >= 0
 tau3(9): + tau(9) >= 0
 tau3(10): + tau(10) >= 0
 tau3(11): + tau(11) >= 0
 tau3(12): + tau(12) >= 0
 tau3(13): + tau(13) >= 0
 tau3(14): + tau(14) >= 0
 tau3(15): + tau(15) >= 0
 tau3(16): + tau(16) >= 0
 tau3(17): + tau(17) >= 0
 tau3(18): + tau(18) >= 0
 tau3(19): + tau(19) >= 0
 tau3(20): + tau(20) >= 0
 tau4(0): + tau(0) >= 0.206
 tau4(1): + tau(1) >= 0.206
 tau4(2): + tau(2) >= 0.206
 tau4(3): + tau(3) >= 0.206
 tau4(4): + tau(4) >= 0.206
 ineq106(4,0): + azim(4,0) - 0.315 y1(4,0) + 0.402 y2(4,0) + 0.402 y3(4,0) + 0.402 y5(4,0) + 0.402 y6(4,0) >= 4.215
 ineq106(3,0): + azim(3,0) - 0.315 y1(3,0) + 0.402 y2(3,0) + 0.402 y3(3,0) + 0.402 y5(3,0) + 0.402 y6(3,0) >= 4.215
 ineq106(6,0): + azim(6,0) - 0.315 y1(6,0) + 0.402 y2(6,0) + 0.402 y3(6,0) + 0.402 y5(6,0) + 0.402 y6(6,0) >= 4.215
 ineq106(7,0): + azim(7,0) - 0.315 y1(7,0) + 0.402 y2(7,0) + 0.402 y3(7,0) + 0.402 y5(7,0) + 0.402 y6(7,0) >= 4.215
 ineq106(8,1): + azim(8,1) - 0.315 y1(8,1) + 0.402 y2(8,1) + 0.402 y3(8,1) + 0.402 y5(8,1) + 0.402 y6(8,1) >= 4.215
 ineq106(0,1): + azim(0,1) - 0.315 y1(0,1) + 0.402 y2(0,1) + 0.402 y3(0,1) + 0.402 y5(0,1) + 0.402 y6(0,1) >= 4.215
 ineq106(5,1): + azim(5,1) - 0.315 y1(5,1) + 0.402 y2(5,1) + 0.402 y3(5,1) + 0.402 y5(5,1) + 0.402 y6(5,1) >= 4.215
 ineq106(9,1): + azim(9,1) - 0.315 y1(9,1) + 0.402 y2(9,1) + 0.402 y3(9,1) + 0.402 y5(9,1) + 0.402 y6(9,1) >= 4.215
 ineq106(6,2): + azim(6,2) - 0.315 y1(6,2) + 0.402 y2(6,2) + 0.402 y3(6,2) + 0.402 y5(6,2) + 0.402 y6(6,2) >= 4.215
 ineq106(2,2): + azim(2,2) - 0.315 y1(2,2) + 0.402 y2(2,2) + 0.402 y3(2,2) + 0.402 y5(2,2) + 0.402 y6(2,2) >= 4.215
 ineq106(10,2): + azim(10,2) - 0.315 y1(10,2) + 0.402 y2(10,2) + 0.402 y3(10,2) + 0.402 y5(10,2) + 0.402 y6(10,2) >= 4.215
 ineq106(11,2): + azim(11,2) - 0.315 y1(11,2) + 0.402 y2(11,2) + 0.402 y3(11,2) + 0.402 y5(11,2) + 0.402 y6(11,2) >= 4.215
 ineq106(0,3): + azim(0,3) - 0.315 y1(0,3) + 0.402 y2(0,3) + 0.402 y3(0,3) + 0.402 y5(0,3) + 0.402 y6(0,3) >= 4.215
 ineq106(1,3): + azim(1,3) - 0.315 y1(1,3) + 0.402 y2(1,3) + 0.402 y3(1,3) + 0.402 y5(1,3) + 0.402 y6(1,3) >= 4.215
 ineq106(2,3): + azim(2,3) - 0.315 y1(2,3) + 0.402 y2(2,3) + 0.402 y3(2,3) + 0.402 y5(2,3) + 0.402 y6(2,3) >= 4.215
 ineq106(3,3): + azim(3,3) - 0.315 y1(3,3) + 0.402 y2(3,3) + 0.402 y3(3,3) + 0.402 y5(3,3) + 0.402 y6(3,3) >= 4.215
 ineq106(0,4): + azim(0,4) - 0.315 y1(0,4) + 0.402 y2(0,4) + 0.402 y3(0,4) + 0.402 y5(0,4) + 0.402 y6(0,4) >= 4.215
 ineq106(3,4): + azim(3,4) - 0.315 y1(3,4) + 0.402 y2(3,4) + 0.402 y3(3,4) + 0.402 y5(3,4) + 0.402 y6(3,4) >= 4.215
 ineq106(4,4): + azim(4,4) - 0.315 y1(4,4) + 0.402 y2(4,4) + 0.402 y3(4,4) + 0.402 y5(4,4) + 0.402 y6(4,4) >= 4.215
 ineq106(5,4): + azim(5,4) - 0.315 y1(5,4) + 0.402 y2(5,4) + 0.402 y3(5,4) + 0.402 y5(5,4) + 0.402 y6(5,4) >= 4.215
 ineq107(1,5): + rhazim(1,5) - 0.6 y1(1,5) + 0.3639 y2(1,5) + 0.3639 y3(1,5) - 0.685 y4(1,5) + 0.3639 y5(1,5) + 0.3639 y6(1,5) >= 1.572
 ineq107(0,5): + rhazim(0,5) - 0.6 y1(0,5) + 0.3639 y2(0,5) + 0.3639 y3(0,5) - 0.685 y4(0,5) + 0.3639 y5(0,5) + 0.3639 y6(0,5) >= 1.572
 ineq107(8,5): + rhazim(8,5) - 0.6 y1(8,5) + 0.3639 y2(8,5) + 0.3639 y3(8,5) - 0.685 y4(8,5) + 0.3639 y5(8,5) + 0.3639 y6(8,5) >= 1.572
 ineq107(10,6): + rhazim(10,6) - 0.6 y1(10,6) + 0.3639 y2(10,6) + 0.3639 y3(10,6) - 0.685 y4(10,6) + 0.3639 y5(10,6) + 0.3639 y6(10,6) >= 1.572
 ineq107(2,6): + rhazim(2,6) - 0.6 y1(2,6) + 0.3639 y2(2,6) + 0.3639 y3(2,6) - 0.685 y4(2,6) + 0.3639 y5(2,6) + 0.3639 y6(2,6) >= 1.572
 ineq107(1,6): + rhazim(1,6) - 0.6 y1(1,6) + 0.3639 y2(1,6) + 0.3639 y3(1,6) - 0.685 y4(1,6) + 0.3639 y5(1,6) + 0.3639 y6(1,6) >= 1.572
 ineq107(10,7): + rhazim(10,7) - 0.6 y1(10,7) + 0.3639 y2(10,7) + 0.3639 y3(10,7) - 0.685 y4(10,7) + 0.3639 y5(10,7) + 0.3639 y6(10,7) >= 1.572
 ineq107(1,7): + rhazim(1,7) - 0.6 y1(1,7) + 0.3639 y2(1,7) + 0.3639 y3(1,7) - 0.685 y4(1,7) + 0.3639 y5(1,7) + 0.3639 y6(1,7) >= 1.572
 ineq107(8,7): + rhazim(8,7) - 0.6 y1(8,7) + 0.3639 y2(8,7) + 0.3639 y3(8,7) - 0.685 y4(8,7) + 0.3639 y5(8,7) + 0.3639 y6(8,7) >= 1.572
 ineq107(7,8): + rhazim(7,8) - 0.6 y1(7,8) + 0.3639 y2(7,8) + 0.3639 y3(7,8) - 0.685 y4(7,8) + 0.3639 y5(7,8) + 0.3639 y6(7,8) >= 1.572
 ineq107(6,8): + rhazim(6,8) - 0.6 y1(6,8) + 0.3639 y2(6,8) + 0.3639 y3(6,8) - 0.685 y4(6,8) + 0.3639 y5(6,8) + 0.3639 y6(6,8) >= 1.572
 ineq107(11,8): + rhazim(11,8) - 0.6 y1(11,8) + 0.3639 y2(11,8) + 0.3639 y3(11,8) - 0.685 y4(11,8) + 0.3639 y5(11,8) + 0.3639 y6(11,8) >= 1.572
 ineq107(9,9): + rhazim(9,9) - 0.6 y1(9,9) + 0.3639 y2(9,9) + 0.3639 y3(9,9) - 0.685 y4(9,9) + 0.3639 y5(9,9) + 0.3639 y6(9,9) >= 1.572
 ineq107(5,9): + rhazim(5,9) - 0.6 y1(5,9) + 0.3639 y2(5,9) + 0.3639 y3(5,9) - 0.685 y4(5,9) + 0.3639 y5(5,9) + 0.3639 y6(5,9) >= 1.572
 ineq107(12,9): + rhazim(12,9) - 0.6 y1(12,9) + 0.3639 y2(12,9) + 0.3639 y3(12,9) - 0.685 y4(12,9) + 0.3639 y5(12,9) + 0.3639 y6(12,9) >= 1.572
 ineq107(12,10): + rhazim(12,10) - 0.6 y1(12,10) + 0.3639 y2(12,10) + 0.3639 y3(12,10) - 0.685 y4(12,10) + 0.3639 y5(12,10) + 0.3639 y6(12,10) >= 1.572
 ineq107(5,10): + rhazim(5,10) - 0.6 y1(5,10) + 0.3639 y2(5,10) + 0.3639 y3(5,10) - 0.685 y4(5,10) + 0.3639 y5(5,10) + 0.3639 y6(5,10) >= 1.572
 ineq107(4,10): + rhazim(4,10) - 0.6 y1(4,10) + 0.3639 y2(4,10) + 0.3639 y3(4,10) - 0.685 y4(4,10) + 0.3639 y5(4,10) + 0.3639 y6(4,10) >= 1.572
 ineq107(12,11): + rhazim(12,11) - 0.6 y1(12,11) + 0.3639 y2(12,11) + 0.3639 y3(12,11) - 0.685 y4(12,11) + 0.3639 y5(12,11) + 0.3639 y6(12,11) >= 1.572
 ineq107(4,11): + rhazim(4,11) - 0.6 y1(4,11) + 0.3639 y2(4,11) + 0.3639 y3(4,11) - 0.685 y4(4,11) + 0.3639 y5(4,11) + 0.3639 y6(4,11) >= 1.572
 ineq107(7,11): + rhazim(7,11) - 0.6 y1(7,11) + 0.3639 y2(7,11) + 0.3639 y3(7,11) - 0.685 y4(7,11) + 0.3639 y5(7,11) + 0.3639 y6(7,11) >= 1.572
 ineq107(11,12): + rhazim(11,12) - 0.6 y1(11,12) + 0.3639 y2(11,12) + 0.3639 y3(11,12) - 0.685 y4(11,12) + 0.3639 y5(11,12) + 0.3639 y6(11,12) >= 1.572
 ineq107(10,12): + rhazim(10,12) - 0.6 y1(10,12) + 0.3639 y2(10,12) + 0.3639 y3(10,12) - 0.685 y4(10,12) + 0.3639 y5(10,12) + 0.3639 y6(10,12) >= 1.572
 ineq107(13,12): + rhazim(13,12) - 0.6 y1(13,12) + 0.3639 y2(13,12) + 0.3639 y3(13,12) - 0.685 y4(13,12) + 0.3639 y5(13,12) + 0.3639 y6(13,12) >= 1.572
 ineq107(13,13): + rhazim(13,13) - 0.6 y1(13,13) + 0.3639 y2(13,13) + 0.3639 y3(13,13) - 0.685 y4(13,13) + 0.3639 y5(13,13) + 0.3639 y6(13,13) >= 1.572
 ineq107(10,13): + rhazim(10,13) - 0.6 y1(10,13) + 0.3639 y2(10,13) + 0.3639 y3(10,13) - 0.685 y4(10,13) + 0.3639 y5(10,13) + 0.3639 y6(10,13) >= 1.572
 ineq107(8,13): + rhazim(8,13) - 0.6 y1(8,13) + 0.3639 y2(8,13) + 0.3639 y3(8,13) - 0.685 y4(8,13) + 0.3639 y5(8,13) + 0.3639 y6(8,13) >= 1.572
 ineq107(13,14): + rhazim(13,14) - 0.6 y1(13,14) + 0.3639 y2(13,14) + 0.3639 y3(13,14) - 0.685 y4(13,14) + 0.3639 y5(13,14) + 0.3639 y6(13,14) >= 1.572
 ineq107(8,14): + rhazim(8,14) - 0.6 y1(8,14) + 0.3639 y2(8,14) + 0.3639 y3(8,14) - 0.685 y4(8,14) + 0.3639 y5(8,14) + 0.3639 y6(8,14) >= 1.572
 ineq107(9,14): + rhazim(9,14) - 0.6 y1(9,14) + 0.3639 y2(9,14) + 0.3639 y3(9,14) - 0.685 y4(9,14) + 0.3639 y5(9,14) + 0.3639 y6(9,14) >= 1.572
 ineq107(13,15): + rhazim(13,15) - 0.6 y1(13,15) + 0.3639 y2(13,15) + 0.3639 y3(13,15) - 0.685 y4(13,15) + 0.3639 y5(13,15) + 0.3639 y6(13,15) >= 1.572
 ineq107(9,15): + rhazim(9,15) - 0.6 y1(9,15) + 0.3639 y2(9,15) + 0.3639 y3(9,15) - 0.685 y4(9,15) + 0.3639 y5(9,15) + 0.3639 y6(9,15) >= 1.572
 ineq107(14,15): + rhazim(14,15) - 0.6 y1(14,15) + 0.3639 y2(14,15) + 0.3639 y3(14,15) - 0.685 y4(14,15) + 0.3639 y5(14,15) + 0.3639 y6(14,15) >= 1.572
 ineq107(14,16): + rhazim(14,16) - 0.6 y1(14,16) + 0.3639 y2(14,16) + 0.3639 y3(14,16) - 0.685 y4(14,16) + 0.3639 y5(14,16) + 0.3639 y6(14,16) >= 1.572
 ineq107(9,16): + rhazim(9,16) - 0.6 y1(9,16) + 0.3639 y2(9,16) + 0.3639 y3(9,16) - 0.685 y4(9,16) + 0.3639 y5(9,16) + 0.3639 y6(9,16) >= 1.572
 ineq107(12,16): + rhazim(12,16) - 0.6 y1(12,16) + 0.3639 y2(12,16) + 0.3639 y3(12,16) - 0.685 y4(12,16) + 0.3639 y5(12,16) + 0.3639 y6(12,16) >= 1.572
 ineq107(14,17): + rhazim(14,17) - 0.6 y1(14,17) + 0.3639 y2(14,17) + 0.3639 y3(14,17) - 0.685 y4(14,17) + 0.3639 y5(14,17) + 0.3639 y6(14,17) >= 1.572
 ineq107(12,17): + rhazim(12,17) - 0.6 y1(12,17) + 0.3639 y2(12,17) + 0.3639 y3(12,17) - 0.685 y4(12,17) + 0.3639 y5(12,17) + 0.3639 y6(12,17) >= 1.572
 ineq107(7,17): + rhazim(7,17) - 0.6 y1(7,17) + 0.3639 y2(7,17) + 0.3639 y3(7,17) - 0.685 y4(7,17) + 0.3639 y5(7,17) + 0.3639 y6(7,17) >= 1.572
 ineq107(14,18): + rhazim(14,18) - 0.6 y1(14,18) + 0.3639 y2(14,18) + 0.3639 y3(14,18) - 0.685 y4(14,18) + 0.3639 y5(14,18) + 0.3639 y6(14,18) >= 1.572
 ineq107(7,18): + rhazim(7,18) - 0.6 y1(7,18) + 0.3639 y2(7,18) + 0.3639 y3(7,18) - 0.685 y4(7,18) + 0.3639 y5(7,18) + 0.3639 y6(7,18) >= 1.572
 ineq107(11,18): + rhazim(11,18) - 0.6 y1(11,18) + 0.3639 y2(11,18) + 0.3639 y3(11,18) - 0.685 y4(11,18) + 0.3639 y5(11,18) + 0.3639 y6(11,18) >= 1.572
 ineq107(11,19): + rhazim(11,19) - 0.6 y1(11,19) + 0.3639 y2(11,19) + 0.3639 y3(11,19) - 0.685 y4(11,19) + 0.3639 y5(11,19) + 0.3639 y6(11,19) >= 1.572
 ineq107(13,19): + rhazim(13,19) - 0.6 y1(13,19) + 0.3639 y2(13,19) + 0.3639 y3(13,19) - 0.685 y4(13,19) + 0.3639 y5(13,19) + 0.3639 y6(13,19) >= 1.572
 ineq107(14,19): + rhazim(14,19) - 0.6 y1(14,19) + 0.3639 y2(14,19) + 0.3639 y3(14,19) - 0.685 y4(14,19) + 0.3639 y5(14,19) + 0.3639 y6(14,19) >= 1.572
 ineq107(6,20): + rhazim(6,20) - 0.6 y1(6,20) + 0.3639 y2(6,20) + 0.3639 y3(6,20) - 0.685 y4(6,20) + 0.3639 y5(6,20) + 0.3639 y6(6,20) >= 1.572
 ineq107(3,20): + rhazim(3,20) - 0.6 y1(3,20) + 0.3639 y2(3,20) + 0.3639 y3(3,20) - 0.685 y4(3,20) + 0.3639 y5(3,20) + 0.3639 y6(3,20) >= 1.572
 ineq107(2,20): + rhazim(2,20) - 0.6 y1(2,20) + 0.3639 y2(2,20) + 0.3639 y3(2,20) - 0.685 y4(2,20) + 0.3639 y5(2,20) + 0.3639 y6(2,20) >= 1.572
 ineq108(1,5): - azim(1,5) + 0.5 y1(1,5) - 0.152 y2(1,5) - 0.152 y3(1,5) + 0.773 y4(1,5) - 0.152 y5(1,5) - 0.152 y6(1,5) >= 0.0990000000000002
 ineq108(0,5): - azim(0,5) + 0.5 y1(0,5) - 0.152 y2(0,5) - 0.152 y3(0,5) + 0.773 y4(0,5) - 0.152 y5(0,5) - 0.152 y6(0,5) >= 0.0990000000000002
 ineq108(8,5): - azim(8,5) + 0.5 y1(8,5) - 0.152 y2(8,5) - 0.152 y3(8,5) + 0.773 y4(8,5) - 0.152 y5(8,5) - 0.152 y6(8,5) >= 0.0990000000000002
 ineq108(10,6): - azim(10,6) + 0.5 y1(10,6) - 0.152 y2(10,6) - 0.152 y3(10,6) + 0.773 y4(10,6) - 0.152 y5(10,6) - 0.152 y6(10,6) >= 0.0990000000000002
 ineq108(2,6): - azim(2,6) + 0.5 y1(2,6) - 0.152 y2(2,6) - 0.152 y3(2,6) + 0.773 y4(2,6) - 0.152 y5(2,6) - 0.152 y6(2,6) >= 0.0990000000000002
 ineq108(1,6): - azim(1,6) + 0.5 y1(1,6) - 0.152 y2(1,6) - 0.152 y3(1,6) + 0.773 y4(1,6) - 0.152 y5(1,6) - 0.152 y6(1,6) >= 0.0990000000000002
 ineq108(10,7): - azim(10,7) + 0.5 y1(10,7) - 0.152 y2(10,7) - 0.152 y3(10,7) + 0.773 y4(10,7) - 0.152 y5(10,7) - 0.152 y6(10,7) >= 0.0990000000000002
 ineq108(1,7): - azim(1,7) + 0.5 y1(1,7) - 0.152 y2(1,7) - 0.152 y3(1,7) + 0.773 y4(1,7) - 0.152 y5(1,7) - 0.152 y6(1,7) >= 0.0990000000000002
 ineq108(8,7): - azim(8,7) + 0.5 y1(8,7) - 0.152 y2(8,7) - 0.152 y3(8,7) + 0.773 y4(8,7) - 0.152 y5(8,7) - 0.152 y6(8,7) >= 0.0990000000000002
 ineq108(7,8): - azim(7,8) + 0.5 y1(7,8) - 0.152 y2(7,8) - 0.152 y3(7,8) + 0.773 y4(7,8) - 0.152 y5(7,8) - 0.152 y6(7,8) >= 0.0990000000000002
 ineq108(6,8): - azim(6,8) + 0.5 y1(6,8) - 0.152 y2(6,8) - 0.152 y3(6,8) + 0.773 y4(6,8) - 0.152 y5(6,8) - 0.152 y6(6,8) >= 0.0990000000000002
 ineq108(11,8): - azim(11,8) + 0.5 y1(11,8) - 0.152 y2(11,8) - 0.152 y3(11,8) + 0.773 y4(11,8) - 0.152 y5(11,8) - 0.152 y6(11,8) >= 0.0990000000000002
 ineq108(9,9): - azim(9,9) + 0.5 y1(9,9) - 0.152 y2(9,9) - 0.152 y3(9,9) + 0.773 y4(9,9) - 0.152 y5(9,9) - 0.152 y6(9,9) >= 0.0990000000000002
 ineq108(5,9): - azim(5,9) + 0.5 y1(5,9) - 0.152 y2(5,9) - 0.152 y3(5,9) + 0.773 y4(5,9) - 0.152 y5(5,9) - 0.152 y6(5,9) >= 0.0990000000000002
 ineq108(12,9): - azim(12,9) + 0.5 y1(12,9) - 0.152 y2(12,9) - 0.152 y3(12,9) + 0.773 y4(12,9) - 0.152 y5(12,9) - 0.152 y6(12,9) >= 0.0990000000000002
 ineq108(12,10): - azim(12,10) + 0.5 y1(12,10) - 0.152 y2(12,10) - 0.152 y3(12,10) + 0.773 y4(12,10) - 0.152 y5(12,10) - 0.152 y6(12,10) >= 0.0990000000000002
 ineq108(5,10): - azim(5,10) + 0.5 y1(5,10) - 0.152 y2(5,10) - 0.152 y3(5,10) + 0.773 y4(5,10) - 0.152 y5(5,10) - 0.152 y6(5,10) >= 0.0990000000000002
 ineq108(4,10): - azim(4,10) + 0.5 y1(4,10) - 0.152 y2(4,10) - 0.152 y3(4,10) + 0.773 y4(4,10) - 0.152 y5(4,10) - 0.152 y6(4,10) >= 0.0990000000000002
 ineq108(12,11): - azim(12,11) + 0.5 y1(12,11) - 0.152 y2(12,11) - 0.152 y3(12,11) + 0.773 y4(12,11) - 0.152 y5(12,11) - 0.152 y6(12,11) >= 0.0990000000000002
 ineq108(4,11): - azim(4,11) + 0.5 y1(4,11) - 0.152 y2(4,11) - 0.152 y3(4,11) + 0.773 y4(4,11) - 0.152 y5(4,11) - 0.152 y6(4,11) >= 0.0990000000000002
 ineq108(7,11): - azim(7,11) + 0.5 y1(7,11) - 0.152 y2(7,11) - 0.152 y3(7,11) + 0.773 y4(7,11) - 0.152 y5(7,11) - 0.152 y6(7,11) >= 0.0990000000000002
 ineq108(11,12): - azim(11,12) + 0.5 y1(11,12) - 0.152 y2(11,12) - 0.152 y3(11,12) + 0.773 y4(11,12) - 0.152 y5(11,12) - 0.152 y6(11,12) >= 0.0990000000000002
 ineq108(10,12): - azim(10,12) + 0.5 y1(10,12) - 0.152 y2(10,12) - 0.152 y3(10,12) + 0.773 y4(10,12) - 0.152 y5(10,12) - 0.152 y6(10,12) >= 0.0990000000000002
 ineq108(13,12): - azim(13,12) + 0.5 y1(13,12) - 0.152 y2(13,12) - 0.152 y3(13,12) + 0.773 y4(13,12) - 0.152 y5(13,12) - 0.152 y6(13,12) >= 0.0990000000000002
 ineq108(13,13): - azim(13,13) + 0.5 y1(13,13) - 0.152 y2(13,13) - 0.152 y3(13,13) + 0.773 y4(13,13) - 0.152 y5(13,13) - 0.152 y6(13,13) >= 0.0990000000000002
 ineq108(10,13): - azim(10,13) + 0.5 y1(10,13) - 0.152 y2(10,13) - 0.152 y3(10,13) + 0.773 y4(10,13) - 0.152 y5(10,13) - 0.152 y6(10,13) >= 0.0990000000000002
 ineq108(8,13): - azim(8,13) + 0.5 y1(8,13) - 0.152 y2(8,13) - 0.152 y3(8,13) + 0.773 y4(8,13) - 0.152 y5(8,13) - 0.152 y6(8,13) >= 0.0990000000000002
 ineq108(13,14): - azim(13,14) + 0.5 y1(13,14) - 0.152 y2(13,14) - 0.152 y3(13,14) + 0.773 y4(13,14) - 0.152 y5(13,14) - 0.152 y6(13,14) >= 0.0990000000000002
 ineq108(8,14): - azim(8,14) + 0.5 y1(8,14) - 0.152 y2(8,14) - 0.152 y3(8,14) + 0.773 y4(8,14) - 0.152 y5(8,14) - 0.152 y6(8,14) >= 0.0990000000000002
 ineq108(9,14): - azim(9,14) + 0.5 y1(9,14) - 0.152 y2(9,14) - 0.152 y3(9,14) + 0.773 y4(9,14) - 0.152 y5(9,14) - 0.152 y6(9,14) >= 0.0990000000000002
 ineq108(13,15): - azim(13,15) + 0.5 y1(13,15) - 0.152 y2(13,15) - 0.152 y3(13,15) + 0.773 y4(13,15) - 0.152 y5(13,15) - 0.152 y6(13,15) >= 0.0990000000000002
 ineq108(9,15): - azim(9,15) + 0.5 y1(9,15) - 0.152 y2(9,15) - 0.152 y3(9,15) + 0.773 y4(9,15) - 0.152 y5(9,15) - 0.152 y6(9,15) >= 0.0990000000000002
 ineq108(14,15): - azim(14,15) + 0.5 y1(14,15) - 0.152 y2(14,15) - 0.152 y3(14,15) + 0.773 y4(14,15) - 0.152 y5(14,15) - 0.152 y6(14,15) >= 0.0990000000000002
 ineq108(14,16): - azim(14,16) + 0.5 y1(14,16) - 0.152 y2(14,16) - 0.152 y3(14,16) + 0.773 y4(14,16) - 0.152 y5(14,16) - 0.152 y6(14,16) >= 0.0990000000000002
 ineq108(9,16): - azim(9,16) + 0.5 y1(9,16) - 0.152 y2(9,16) - 0.152 y3(9,16) + 0.773 y4(9,16) - 0.152 y5(9,16) - 0.152 y6(9,16) >= 0.0990000000000002
 ineq108(12,16): - azim(12,16) + 0.5 y1(12,16) - 0.152 y2(12,16) - 0.152 y3(12,16) + 0.773 y4(12,16) - 0.152 y5(12,16) - 0.152 y6(12,16) >= 0.0990000000000002
 ineq108(14,17): - azim(14,17) + 0.5 y1(14,17) - 0.152 y2(14,17) - 0.152 y3(14,17) + 0.773 y4(14,17) - 0.152 y5(14,17) - 0.152 y6(14,17) >= 0.0990000000000002
 ineq108(12,17): - azim(12,17) + 0.5 y1(12,17) - 0.152 y2(12,17) - 0.152 y3(12,17) + 0.773 y4(12,17) - 0.152 y5(12,17) - 0.152 y6(12,17) >= 0.0990000000000002
 ineq108(7,17): - azim(7,17) + 0.5 y1(7,17) - 0.152 y2(7,17) - 0.152 y3(7,17) + 0.773 y4(7,17) - 0.152 y5(7,17) - 0.152 y6(7,17) >= 0.0990000000000002
 ineq108(14,18): - azim(14,18) + 0.5 y1(14,18) - 0.152 y2(14,18) - 0.152 y3(14,18) + 0.773 y4(14,18) - 0.152 y5(14,18) - 0.152 y6(14,18) >= 0.0990000000000002
 ineq108(7,18): - azim(7,18) + 0.5 y1(7,18) - 0.152 y2(7,18) - 0.152 y3(7,18) + 0.773 y4(7,18) - 0.152 y5(7,18) - 0.152 y6(7,18) >= 0.0990000000000002
 ineq108(11,18): - azim(11,18) + 0.5 y1(11,18) - 0.152 y2(11,18) - 0.152 y3(11,18) + 0.773 y4(11,18) - 0.152 y5(11,18) - 0.152 y6(11,18) >= 0.0990000000000002
 ineq108(11,19): - azim(11,19) + 0.5 y1(11,19) - 0.152 y2(11,19) - 0.152 y3(11,19) + 0.773 y4(11,19) - 0.152 y5(11,19) - 0.152 y6(11,19) >= 0.0990000000000002
 ineq108(13,19): - azim(13,19) + 0.5 y1(13,19) - 0.152 y2(13,19) - 0.152 y3(13,19) + 0.773 y4(13,19) - 0.152 y5(13,19) - 0.152 y6(13,19) >= 0.0990000000000002
 ineq108(14,19): - azim(14,19) + 0.5 y1(14,19) - 0.152 y2(14,19) - 0.152 y3(14,19) + 0.773 y4(14,19) - 0.152 y5(14,19) - 0.152 y6(14,19) >= 0.0990000000000002
 ineq108(6,20): - azim(6,20) + 0.5 y1(6,20) - 0.152 y2(6,20) - 0.152 y3(6,20) + 0.773 y4(6,20) - 0.152 y5(6,20) - 0.152 y6(6,20) >= 0.0990000000000002
 ineq108(3,20): - azim(3,20) + 0.5 y1(3,20) - 0.152 y2(3,20) - 0.152 y3(3,20) + 0.773 y4(3,20) - 0.152 y5(3,20) - 0.152 y6(3,20) >= 0.0990000000000002
 ineq108(2,20): - azim(2,20) + 0.5 y1(2,20) - 0.152 y2(2,20) - 0.152 y3(2,20) + 0.773 y4(2,20) - 0.152 y5(2,20) - 0.152 y6(2,20) >= 0.0990000000000002
 ineq109(1,5): + azim(1,5) - 0.235 y1(1,5) + 0.3639 y2(1,5) + 0.3639 y3(1,5) - 0.685 y4(1,5) + 0.3639 y5(1,5) + 0.3639 y6(1,5) >= 2.302
 ineq109(0,5): + azim(0,5) - 0.235 y1(0,5) + 0.3639 y2(0,5) + 0.3639 y3(0,5) - 0.685 y4(0,5) + 0.3639 y5(0,5) + 0.3639 y6(0,5) >= 2.302
 ineq109(8,5): + azim(8,5) - 0.235 y1(8,5) + 0.3639 y2(8,5) + 0.3639 y3(8,5) - 0.685 y4(8,5) + 0.3639 y5(8,5) + 0.3639 y6(8,5) >= 2.302
 ineq109(10,6): + azim(10,6) - 0.235 y1(10,6) + 0.3639 y2(10,6) + 0.3639 y3(10,6) - 0.685 y4(10,6) + 0.3639 y5(10,6) + 0.3639 y6(10,6) >= 2.302
 ineq109(2,6): + azim(2,6) - 0.235 y1(2,6) + 0.3639 y2(2,6) + 0.3639 y3(2,6) - 0.685 y4(2,6) + 0.3639 y5(2,6) + 0.3639 y6(2,6) >= 2.302
 ineq109(1,6): + azim(1,6) - 0.235 y1(1,6) + 0.3639 y2(1,6) + 0.3639 y3(1,6) - 0.685 y4(1,6) + 0.3639 y5(1,6) + 0.3639 y6(1,6) >= 2.302
 ineq109(10,7): + azim(10,7) - 0.235 y1(10,7) + 0.3639 y2(10,7) + 0.3639 y3(10,7) - 0.685 y4(10,7) + 0.3639 y5(10,7) + 0.3639 y6(10,7) >= 2.302
 ineq109(1,7): + azim(1,7) - 0.235 y1(1,7) + 0.3639 y2(1,7) + 0.3639 y3(1,7) - 0.685 y4(1,7) + 0.3639 y5(1,7) + 0.3639 y6(1,7) >= 2.302
 ineq109(8,7): + azim(8,7) - 0.235 y1(8,7) + 0.3639 y2(8,7) + 0.3639 y3(8,7) - 0.685 y4(8,7) + 0.3639 y5(8,7) + 0.3639 y6(8,7) >= 2.302
 ineq109(7,8): + azim(7,8) - 0.235 y1(7,8) + 0.3639 y2(7,8) + 0.3639 y3(7,8) - 0.685 y4(7,8) + 0.3639 y5(7,8) + 0.3639 y6(7,8) >= 2.302
 ineq109(6,8): + azim(6,8) - 0.235 y1(6,8) + 0.3639 y2(6,8) + 0.3639 y3(6,8) - 0.685 y4(6,8) + 0.3639 y5(6,8) + 0.3639 y6(6,8) >= 2.302
 ineq109(11,8): + azim(11,8) - 0.235 y1(11,8) + 0.3639 y2(11,8) + 0.3639 y3(11,8) - 0.685 y4(11,8) + 0.3639 y5(11,8) + 0.3639 y6(11,8) >= 2.302
 ineq109(9,9): + azim(9,9) - 0.235 y1(9,9) + 0.3639 y2(9,9) + 0.3639 y3(9,9) - 0.685 y4(9,9) + 0.3639 y5(9,9) + 0.3639 y6(9,9) >= 2.302
 ineq109(5,9): + azim(5,9) - 0.235 y1(5,9) + 0.3639 y2(5,9) + 0.3639 y3(5,9) - 0.685 y4(5,9) + 0.3639 y5(5,9) + 0.3639 y6(5,9) >= 2.302
 ineq109(12,9): + azim(12,9) - 0.235 y1(12,9) + 0.3639 y2(12,9) + 0.3639 y3(12,9) - 0.685 y4(12,9) + 0.3639 y5(12,9) + 0.3639 y6(12,9) >= 2.302
 ineq109(12,10): + azim(12,10) - 0.235 y1(12,10) + 0.3639 y2(12,10) + 0.3639 y3(12,10) - 0.685 y4(12,10) + 0.3639 y5(12,10) + 0.3639 y6(12,10) >= 2.302
 ineq109(5,10): + azim(5,10) - 0.235 y1(5,10) + 0.3639 y2(5,10) + 0.3639 y3(5,10) - 0.685 y4(5,10) + 0.3639 y5(5,10) + 0.3639 y6(5,10) >= 2.302
 ineq109(4,10): + azim(4,10) - 0.235 y1(4,10) + 0.3639 y2(4,10) + 0.3639 y3(4,10) - 0.685 y4(4,10) + 0.3639 y5(4,10) + 0.3639 y6(4,10) >= 2.302
 ineq109(12,11): + azim(12,11) - 0.235 y1(12,11) + 0.3639 y2(12,11) + 0.3639 y3(12,11) - 0.685 y4(12,11) + 0.3639 y5(12,11) + 0.3639 y6(12,11) >= 2.302
 ineq109(4,11): + azim(4,11) - 0.235 y1(4,11) + 0.3639 y2(4,11) + 0.3639 y3(4,11) - 0.685 y4(4,11) + 0.3639 y5(4,11) + 0.3639 y6(4,11) >= 2.302
 ineq109(7,11): + azim(7,11) - 0.235 y1(7,11) + 0.3639 y2(7,11) + 0.3639 y3(7,11) - 0.685 y4(7,11) + 0.3639 y5(7,11) + 0.3639 y6(7,11) >= 2.302
 ineq109(11,12): + azim(11,12) - 0.235 y1(11,12) + 0.3639 y2(11,12) + 0.3639 y3(11,12) - 0.685 y4(11,12) + 0.3639 y5(11,12) + 0.3639 y6(11,12) >= 2.302
 ineq109(10,12): + azim(10,12) - 0.235 y1(10,12) + 0.3639 y2(10,12) + 0.3639 y3(10,12) - 0.685 y4(10,12) + 0.3639 y5(10,12) + 0.3639 y6(10,12) >= 2.302
 ineq109(13,12): + azim(13,12) - 0.235 y1(13,12) + 0.3639 y2(13,12) + 0.3639 y3(13,12) - 0.685 y4(13,12) + 0.3639 y5(13,12) + 0.3639 y6(13,12) >= 2.302
 ineq109(13,13): + azim(13,13) - 0.235 y1(13,13) + 0.3639 y2(13,13) + 0.3639 y3(13,13) - 0.685 y4(13,13) + 0.3639 y5(13,13) + 0.3639 y6(13,13) >= 2.302
 ineq109(10,13): + azim(10,13) - 0.235 y1(10,13) + 0.3639 y2(10,13) + 0.3639 y3(10,13) - 0.685 y4(10,13) + 0.3639 y5(10,13) + 0.3639 y6(10,13) >= 2.302
 ineq109(8,13): + azim(8,13) - 0.235 y1(8,13) + 0.3639 y2(8,13) + 0.3639 y3(8,13) - 0.685 y4(8,13) + 0.3639 y5(8,13) + 0.3639 y6(8,13) >= 2.302
 ineq109(13,14): + azim(13,14) - 0.235 y1(13,14) + 0.3639 y2(13,14) + 0.3639 y3(13,14) - 0.685 y4(13,14) + 0.3639 y5(13,14) + 0.3639 y6(13,14) >= 2.302
 ineq109(8,14): + azim(8,14) - 0.235 y1(8,14) + 0.3639 y2(8,14) + 0.3639 y3(8,14) - 0.685 y4(8,14) + 0.3639 y5(8,14) + 0.3639 y6(8,14) >= 2.302
 ineq109(9,14): + azim(9,14) - 0.235 y1(9,14) + 0.3639 y2(9,14) + 0.3639 y3(9,14) - 0.685 y4(9,14) + 0.3639 y5(9,14) + 0.3639 y6(9,14) >= 2.302
 ineq109(13,15): + azim(13,15) - 0.235 y1(13,15) + 0.3639 y2(13,15) + 0.3639 y3(13,15) - 0.685 y4(13,15) + 0.3639 y5(13,15) + 0.3639 y6(13,15) >= 2.302
 ineq109(9,15): + azim(9,15) - 0.235 y1(9,15) + 0.3639 y2(9,15) + 0.3639 y3(9,15) - 0.685 y4(9,15) + 0.3639 y5(9,15) + 0.3639 y6(9,15) >= 2.302
 ineq109(14,15): + azim(14,15) - 0.235 y1(14,15) + 0.3639 y2(14,15) + 0.3639 y3(14,15) - 0.685 y4(14,15) + 0.3639 y5(14,15) + 0.3639 y6(14,15) >= 2.302
 ineq109(14,16): + azim(14,16) - 0.235 y1(14,16) + 0.3639 y2(14,16) + 0.3639 y3(14,16) - 0.685 y4(14,16) + 0.3639 y5(14,16) + 0.3639 y6(14,16) >= 2.302
 ineq109(9,16): + azim(9,16) - 0.235 y1(9,16) + 0.3639 y2(9,16) + 0.3639 y3(9,16) - 0.685 y4(9,16) + 0.3639 y5(9,16) + 0.3639 y6(9,16) >= 2.302
 ineq109(12,16): + azim(12,16) - 0.235 y1(12,16) + 0.3639 y2(12,16) + 0.3639 y3(12,16) - 0.685 y4(12,16) + 0.3639 y5(12,16) + 0.3639 y6(12,16) >= 2.302
 ineq109(14,17): + azim(14,17) - 0.235 y1(14,17) + 0.3639 y2(14,17) + 0.3639 y3(14,17) - 0.685 y4(14,17) + 0.3639 y5(14,17) + 0.3639 y6(14,17) >= 2.302
 ineq109(12,17): + azim(12,17) - 0.235 y1(12,17) + 0.3639 y2(12,17) + 0.3639 y3(12,17) - 0.685 y4(12,17) + 0.3639 y5(12,17) + 0.3639 y6(12,17) >= 2.302
 ineq109(7,17): + azim(7,17) - 0.235 y1(7,17) + 0.3639 y2(7,17) + 0.3639 y3(7,17) - 0.685 y4(7,17) + 0.3639 y5(7,17) + 0.3639 y6(7,17) >= 2.302
 ineq109(14,18): + azim(14,18) - 0.235 y1(14,18) + 0.3639 y2(14,18) + 0.3639 y3(14,18) - 0.685 y4(14,18) + 0.3639 y5(14,18) + 0.3639 y6(14,18) >= 2.302
 ineq109(7,18): + azim(7,18) - 0.235 y1(7,18) + 0.3639 y2(7,18) + 0.3639 y3(7,18) - 0.685 y4(7,18) + 0.3639 y5(7,18) + 0.3639 y6(7,18) >= 2.302
 ineq109(11,18): + azim(11,18) - 0.235 y1(11,18) + 0.3639 y2(11,18) + 0.3639 y3(11,18) - 0.685 y4(11,18) + 0.3639 y5(11,18) + 0.3639 y6(11,18) >= 2.302
 ineq109(11,19): + azim(11,19) - 0.235 y1(11,19) + 0.3639 y2(11,19) + 0.3639 y3(11,19) - 0.685 y4(11,19) + 0.3639 y5(11,19) + 0.3639 y6(11,19) >= 2.302
 ineq109(13,19): + azim(13,19) - 0.235 y1(13,19) + 0.3639 y2(13,19) + 0.3639 y3(13,19) - 0.685 y4(13,19) + 0.3639 y5(13,19) + 0.3639 y6(13,19) >= 2.302
 ineq109(14,19): + azim(14,19) - 0.235 y1(14,19) + 0.3639 y2(14,19) + 0.3639 y3(14,19) - 0.685 y4(14,19) + 0.3639 y5(14,19) + 0.3639 y6(14,19) >= 2.302
 ineq109(6,20): + azim(6,20) - 0.235 y1(6,20) + 0.3639 y2(6,20) + 0.3639 y3(6,20) - 0.685 y4(6,20) + 0.3639 y5(6,20) + 0.3639 y6(6,20) >= 2.302
 ineq109(3,20): + azim(3,20) - 0.235 y1(3,20) + 0.3639 y2(3,20) + 0.3639 y3(3,20) - 0.685 y4(3,20) + 0.3639 y5(3,20) + 0.3639 y6(3,20) >= 2.302
 ineq109(2,20): + azim(2,20) - 0.235 y1(2,20) + 0.3639 y2(2,20) + 0.3639 y3(2,20) - 0.685 y4(2,20) + 0.3639 y5(2,20) + 0.3639 y6(2,20) >= 2.302
 ineq110(1,5): - sol(5) - 0.151 y1(1,5) - 0.151 y2(1,5) - 0.151 y3(1,5) + 0.3232 y4(1,5) + 0.3232 y5(1,5) + 0.3232 y6(1,5) >= 0.4819
 ineq110(0,5): - sol(5) - 0.151 y1(0,5) - 0.151 y2(0,5) - 0.151 y3(0,5) + 0.3232 y4(0,5) + 0.3232 y5(0,5) + 0.3232 y6(0,5) >= 0.4819
 ineq110(8,5): - sol(5) - 0.151 y1(8,5) - 0.151 y2(8,5) - 0.151 y3(8,5) + 0.3232 y4(8,5) + 0.3232 y5(8,5) + 0.3232 y6(8,5) >= 0.4819
 ineq110(10,6): - sol(6) - 0.151 y1(10,6) - 0.151 y2(10,6) - 0.151 y3(10,6) + 0.3232 y4(10,6) + 0.3232 y5(10,6) + 0.3232 y6(10,6) >= 0.4819
 ineq110(2,6): - sol(6) - 0.151 y1(2,6) - 0.151 y2(2,6) - 0.151 y3(2,6) + 0.3232 y4(2,6) + 0.3232 y5(2,6) + 0.3232 y6(2,6) >= 0.4819
 ineq110(1,6): - sol(6) - 0.151 y1(1,6) - 0.151 y2(1,6) - 0.151 y3(1,6) + 0.3232 y4(1,6) + 0.3232 y5(1,6) + 0.3232 y6(1,6) >= 0.4819
 ineq110(10,7): - sol(7) - 0.151 y1(10,7) - 0.151 y2(10,7) - 0.151 y3(10,7) + 0.3232 y4(10,7) + 0.3232 y5(10,7) + 0.3232 y6(10,7) >= 0.4819
 ineq110(1,7): - sol(7) - 0.151 y1(1,7) - 0.151 y2(1,7) - 0.151 y3(1,7) + 0.3232 y4(1,7) + 0.3232 y5(1,7) + 0.3232 y6(1,7) >= 0.4819
 ineq110(8,7): - sol(7) - 0.151 y1(8,7) - 0.151 y2(8,7) - 0.151 y3(8,7) + 0.3232 y4(8,7) + 0.3232 y5(8,7) + 0.3232 y6(8,7) >= 0.4819
 ineq110(7,8): - sol(8) - 0.151 y1(7,8) - 0.151 y2(7,8) - 0.151 y3(7,8) + 0.3232 y4(7,8) + 0.3232 y5(7,8) + 0.3232 y6(7,8) >= 0.4819
 ineq110(6,8): - sol(8) - 0.151 y1(6,8) - 0.151 y2(6,8) - 0.151 y3(6,8) + 0.3232 y4(6,8) + 0.3232 y5(6,8) + 0.3232 y6(6,8) >= 0.4819
 ineq110(11,8): - sol(8) - 0.151 y1(11,8) - 0.151 y2(11,8) - 0.151 y3(11,8) + 0.3232 y4(11,8) + 0.3232 y5(11,8) + 0.3232 y6(11,8) >= 0.4819
 ineq110(9,9): - sol(9) - 0.151 y1(9,9) - 0.151 y2(9,9) - 0.151 y3(9,9) + 0.3232 y4(9,9) + 0.3232 y5(9,9) + 0.3232 y6(9,9) >= 0.4819
 ineq110(5,9): - sol(9) - 0.151 y1(5,9) - 0.151 y2(5,9) - 0.151 y3(5,9) + 0.3232 y4(5,9) + 0.3232 y5(5,9) + 0.3232 y6(5,9) >= 0.4819
 ineq110(12,9): - sol(9) - 0.151 y1(12,9) - 0.151 y2(12,9) - 0.151 y3(12,9) + 0.3232 y4(12,9) + 0.3232 y5(12,9) + 0.3232 y6(12,9) >= 0.4819
 ineq110(12,10): - sol(10) - 0.151 y1(12,10) - 0.151 y2(12,10) - 0.151 y3(12,10) + 0.3232 y4(12,10) + 0.3232 y5(12,10) + 0.3232 y6(12,10) >= 0.4819
 ineq110(5,10): - sol(10) - 0.151 y1(5,10) - 0.151 y2(5,10) - 0.151 y3(5,10) + 0.3232 y4(5,10) + 0.3232 y5(5,10) + 0.3232 y6(5,10) >= 0.4819
 ineq110(4,10): - sol(10) - 0.151 y1(4,10) - 0.151 y2(4,10) - 0.151 y3(4,10) + 0.3232 y4(4,10) + 0.3232 y5(4,10) + 0.3232 y6(4,10) >= 0.4819
 ineq110(12,11): - sol(11) - 0.151 y1(12,11) - 0.151 y2(12,11) - 0.151 y3(12,11) + 0.3232 y4(12,11) + 0.3232 y5(12,11) + 0.3232 y6(12,11) >= 0.4819
 ineq110(4,11): - sol(11) - 0.151 y1(4,11) - 0.151 y2(4,11) - 0.151 y3(4,11) + 0.3232 y4(4,11) + 0.3232 y5(4,11) + 0.3232 y6(4,11) >= 0.4819
 ineq110(7,11): - sol(11) - 0.151 y1(7,11) - 0.151 y2(7,11) - 0.151 y3(7,11) + 0.3232 y4(7,11) + 0.3232 y5(7,11) + 0.3232 y6(7,11) >= 0.4819
 ineq110(11,12): - sol(12) - 0.151 y1(11,12) - 0.151 y2(11,12) - 0.151 y3(11,12) + 0.3232 y4(11,12) + 0.3232 y5(11,12) + 0.3232 y6(11,12) >= 0.4819
 ineq110(10,12): - sol(12) - 0.151 y1(10,12) - 0.151 y2(10,12) - 0.151 y3(10,12) + 0.3232 y4(10,12) + 0.3232 y5(10,12) + 0.3232 y6(10,12) >= 0.4819
 ineq110(13,12): - sol(12) - 0.151 y1(13,12) - 0.151 y2(13,12) - 0.151 y3(13,12) + 0.3232 y4(13,12) + 0.3232 y5(13,12) + 0.3232 y6(13,12) >= 0.4819
 ineq110(13,13): - sol(13) - 0.151 y1(13,13) - 0.151 y2(13,13) - 0.151 y3(13,13) + 0.3232 y4(13,13) + 0.3232 y5(13,13) + 0.3232 y6(13,13) >= 0.4819
 ineq110(10,13): - sol(13) - 0.151 y1(10,13) - 0.151 y2(10,13) - 0.151 y3(10,13) + 0.3232 y4(10,13) + 0.3232 y5(10,13) + 0.3232 y6(10,13) >= 0.4819
 ineq110(8,13): - sol(13) - 0.151 y1(8,13) - 0.151 y2(8,13) - 0.151 y3(8,13) + 0.3232 y4(8,13) + 0.3232 y5(8,13) + 0.3232 y6(8,13) >= 0.4819
 ineq110(13,14): - sol(14) - 0.151 y1(13,14) - 0.151 y2(13,14) - 0.151 y3(13,14) + 0.3232 y4(13,14) + 0.3232 y5(13,14) + 0.3232 y6(13,14) >= 0.4819
 ineq110(8,14): - sol(14) - 0.151 y1(8,14) - 0.151 y2(8,14) - 0.151 y3(8,14) + 0.3232 y4(8,14) + 0.3232 y5(8,14) + 0.3232 y6(8,14) >= 0.4819
 ineq110(9,14): - sol(14) - 0.151 y1(9,14) - 0.151 y2(9,14) - 0.151 y3(9,14) + 0.3232 y4(9,14) + 0.3232 y5(9,14) + 0.3232 y6(9,14) >= 0.4819
 ineq110(13,15): - sol(15) - 0.151 y1(13,15) - 0.151 y2(13,15) - 0.151 y3(13,15) + 0.3232 y4(13,15) + 0.3232 y5(13,15) + 0.3232 y6(13,15) >= 0.4819
 ineq110(9,15): - sol(15) - 0.151 y1(9,15) - 0.151 y2(9,15) - 0.151 y3(9,15) + 0.3232 y4(9,15) + 0.3232 y5(9,15) + 0.3232 y6(9,15) >= 0.4819
 ineq110(14,15): - sol(15) - 0.151 y1(14,15) - 0.151 y2(14,15) - 0.151 y3(14,15) + 0.3232 y4(14,15) + 0.3232 y5(14,15) + 0.3232 y6(14,15) >= 0.4819
 ineq110(14,16): - sol(16) - 0.151 y1(14,16) - 0.151 y2(14,16) - 0.151 y3(14,16) + 0.3232 y4(14,16) + 0.3232 y5(14,16) + 0.3232 y6(14,16) >= 0.4819
 ineq110(9,16): - sol(16) - 0.151 y1(9,16) - 0.151 y2(9,16) - 0.151 y3(9,16) + 0.3232 y4(9,16) + 0.3232 y5(9,16) + 0.3232 y6(9,16) >= 0.4819
 ineq110(12,16): - sol(16) - 0.151 y1(12,16) - 0.151 y2(12,16) - 0.151 y3(12,16) + 0.3232 y4(12,16) + 0.3232 y5(12,16) + 0.3232 y6(12,16) >= 0.4819
 ineq110(14,17): - sol(17) - 0.151 y1(14,17) - 0.151 y2(14,17) - 0.151 y3(14,17) + 0.3232 y4(14,17) + 0.3232 y5(14,17) + 0.3232 y6(14,17) >= 0.4819
 ineq110(12,17): - sol(17) - 0.151 y1(12,17) - 0.151 y2(12,17) - 0.151 y3(12,17) + 0.3232 y4(12,17) + 0.3232 y5(12,17) + 0.3232 y6(12,17) >= 0.4819
 ineq110(7,17): - sol(17) - 0.151 y1(7,17) - 0.151 y2(7,17) - 0.151 y3(7,17) + 0.3232 y4(7,17) + 0.3232 y5(7,17) + 0.3232 y6(7,17) >= 0.4819
 ineq110(14,18): - sol(18) - 0.151 y1(14,18) - 0.151 y2(14,18) - 0.151 y3(14,18) + 0.3232 y4(14,18) + 0.3232 y5(14,18) + 0.3232 y6(14,18) >= 0.4819
 ineq110(7,18): - sol(18) - 0.151 y1(7,18) - 0.151 y2(7,18) - 0.151 y3(7,18) + 0.3232 y4(7,18) + 0.3232 y5(7,18) + 0.3232 y6(7,18) >= 0.4819
 ineq110(11,18): - sol(18) - 0.151 y1(11,18) - 0.151 y2(11,18) - 0.151 y3(11,18) + 0.3232 y4(11,18) + 0.3232 y5(11,18) + 0.3232 y6(11,18) >= 0.4819
 ineq110(11,19): - sol(19) - 0.151 y1(11,19) - 0.151 y2(11,19) - 0.151 y3(11,19) + 0.3232 y4(11,19) + 0.3232 y5(11,19) + 0.3232 y6(11,19) >= 0.4819
 ineq110(13,19): - sol(19) - 0.151 y1(13,19) - 0.151 y2(13,19) - 0.151 y3(13,19) + 0.3232 y4(13,19) + 0.3232 y5(13,19) + 0.3232 y6(13,19) >= 0.4819
 ineq110(14,19): - sol(19) - 0.151 y1(14,19) - 0.151 y2(14,19) - 0.151 y3(14,19) + 0.3232 y4(14,19) + 0.3232 y5(14,19) + 0.3232 y6(14,19) >= 0.4819
 ineq110(6,20): - sol(20) - 0.151 y1(6,20) - 0.151 y2(6,20) - 0.151 y3(6,20) + 0.3232 y4(6,20) + 0.3232 y5(6,20) + 0.3232 y6(6,20) >= 0.4819
 ineq110(3,20): - sol(20) - 0.151 y1(3,20) - 0.151 y2(3,20) - 0.151 y3(3,20) + 0.3232 y4(3,20) + 0.3232 y5(3,20) + 0.3232 y6(3,20) >= 0.4819
 ineq110(2,20): - sol(20) - 0.151 y1(2,20) - 0.151 y2(2,20) - 0.151 y3(2,20) + 0.3232 y4(2,20) + 0.3232 y5(2,20) + 0.3232 y6(2,20) >= 0.4819
 ineq111(1,5): + sol(5) + 0.38 y1(1,5) + 0.38 y2(1,5) + 0.38 y3(1,5) - 0.196 y4(1,5) - 0.196 y5(1,5) - 0.196 y6(1,5) >= 1.65525
 ineq111(0,5): + sol(5) + 0.38 y1(0,5) + 0.38 y2(0,5) + 0.38 y3(0,5) - 0.196 y4(0,5) - 0.196 y5(0,5) - 0.196 y6(0,5) >= 1.65525
 ineq111(8,5): + sol(5) + 0.38 y1(8,5) + 0.38 y2(8,5) + 0.38 y3(8,5) - 0.196 y4(8,5) - 0.196 y5(8,5) - 0.196 y6(8,5) >= 1.65525
 ineq111(10,6): + sol(6) + 0.38 y1(10,6) + 0.38 y2(10,6) + 0.38 y3(10,6) - 0.196 y4(10,6) - 0.196 y5(10,6) - 0.196 y6(10,6) >= 1.65525
 ineq111(2,6): + sol(6) + 0.38 y1(2,6) + 0.38 y2(2,6) + 0.38 y3(2,6) - 0.196 y4(2,6) - 0.196 y5(2,6) - 0.196 y6(2,6) >= 1.65525
 ineq111(1,6): + sol(6) + 0.38 y1(1,6) + 0.38 y2(1,6) + 0.38 y3(1,6) - 0.196 y4(1,6) - 0.196 y5(1,6) - 0.196 y6(1,6) >= 1.65525
 ineq111(10,7): + sol(7) + 0.38 y1(10,7) + 0.38 y2(10,7) + 0.38 y3(10,7) - 0.196 y4(10,7) - 0.196 y5(10,7) - 0.196 y6(10,7) >= 1.65525
 ineq111(1,7): + sol(7) + 0.38 y1(1,7) + 0.38 y2(1,7) + 0.38 y3(1,7) - 0.196 y4(1,7) - 0.196 y5(1,7) - 0.196 y6(1,7) >= 1.65525
 ineq111(8,7): + sol(7) + 0.38 y1(8,7) + 0.38 y2(8,7) + 0.38 y3(8,7) - 0.196 y4(8,7) - 0.196 y5(8,7) - 0.196 y6(8,7) >= 1.65525
 ineq111(7,8): + sol(8) + 0.38 y1(7,8) + 0.38 y2(7,8) + 0.38 y3(7,8) - 0.196 y4(7,8) - 0.196 y5(7,8) - 0.196 y6(7,8) >= 1.65525
 ineq111(6,8): + sol(8) + 0.38 y1(6,8) + 0.38 y2(6,8) + 0.38 y3(6,8) - 0.196 y4(6,8) - 0.196 y5(6,8) - 0.196 y6(6,8) >= 1.65525
 ineq111(11,8): + sol(8) + 0.38 y1(11,8) + 0.38 y2(11,8) + 0.38 y3(11,8) - 0.196 y4(11,8) - 0.196 y5(11,8) - 0.196 y6(11,8) >= 1.65525
 ineq111(9,9): + sol(9) + 0.38 y1(9,9) + 0.38 y2(9,9) + 0.38 y3(9,9) - 0.196 y4(9,9) - 0.196 y5(9,9) - 0.196 y6(9,9) >= 1.65525
 ineq111(5,9): + sol(9) + 0.38 y1(5,9) + 0.38 y2(5,9) + 0.38 y3(5,9) - 0.196 y4(5,9) - 0.196 y5(5,9) - 0.196 y6(5,9) >= 1.65525
 ineq111(12,9): + sol(9) + 0.38 y1(12,9) + 0.38 y2(12,9) + 0.38 y3(12,9) - 0.196 y4(12,9) - 0.196 y5(12,9) - 0.196 y6(12,9) >= 1.65525
 ineq111(12,10): + sol(10) + 0.38 y1(12,10) + 0.38 y2(12,10) + 0.38 y3(12,10) - 0.196 y4(12,10) - 0.196 y5(12,10) - 0.196 y6(12,10) >= 1.65525
 ineq111(5,10): + sol(10) + 0.38 y1(5,10) + 0.38 y2(5,10) + 0.38 y3(5,10) - 0.196 y4(5,10) - 0.196 y5(5,10) - 0.196 y6(5,10) >= 1.65525
 ineq111(4,10): + sol(10) + 0.38 y1(4,10) + 0.38 y2(4,10) + 0.38 y3(4,10) - 0.196 y4(4,10) - 0.196 y5(4,10) - 0.196 y6(4,10) >= 1.65525
 ineq111(12,11): + sol(11) + 0.38 y1(12,11) + 0.38 y2(12,11) + 0.38 y3(12,11) - 0.196 y4(12,11) - 0.196 y5(12,11) - 0.196 y6(12,11) >= 1.65525
 ineq111(4,11): + sol(11) + 0.38 y1(4,11) + 0.38 y2(4,11) + 0.38 y3(4,11) - 0.196 y4(4,11) - 0.196 y5(4,11) - 0.196 y6(4,11) >= 1.65525
 ineq111(7,11): + sol(11) + 0.38 y1(7,11) + 0.38 y2(7,11) + 0.38 y3(7,11) - 0.196 y4(7,11) - 0.196 y5(7,11) - 0.196 y6(7,11) >= 1.65525
 ineq111(11,12): + sol(12) + 0.38 y1(11,12) + 0.38 y2(11,12) + 0.38 y3(11,12) - 0.196 y4(11,12) - 0.196 y5(11,12) - 0.196 y6(11,12) >= 1.65525
 ineq111(10,12): + sol(12) + 0.38 y1(10,12) + 0.38 y2(10,12) + 0.38 y3(10,12) - 0.196 y4(10,12) - 0.196 y5(10,12) - 0.196 y6(10,12) >= 1.65525
 ineq111(13,12): + sol(12) + 0.38 y1(13,12) + 0.38 y2(13,12) + 0.38 y3(13,12) - 0.196 y4(13,12) - 0.196 y5(13,12) - 0.196 y6(13,12) >= 1.65525
 ineq111(13,13): + sol(13) + 0.38 y1(13,13) + 0.38 y2(13,13) + 0.38 y3(13,13) - 0.196 y4(13,13) - 0.196 y5(13,13) - 0.196 y6(13,13) >= 1.65525
 ineq111(10,13): + sol(13) + 0.38 y1(10,13) + 0.38 y2(10,13) + 0.38 y3(10,13) - 0.196 y4(10,13) - 0.196 y5(10,13) - 0.196 y6(10,13) >= 1.65525
 ineq111(8,13): + sol(13) + 0.38 y1(8,13) + 0.38 y2(8,13) + 0.38 y3(8,13) - 0.196 y4(8,13) - 0.196 y5(8,13) - 0.196 y6(8,13) >= 1.65525
 ineq111(13,14): + sol(14) + 0.38 y1(13,14) + 0.38 y2(13,14) + 0.38 y3(13,14) - 0.196 y4(13,14) - 0.196 y5(13,14) - 0.196 y6(13,14) >= 1.65525
 ineq111(8,14): + sol(14) + 0.38 y1(8,14) + 0.38 y2(8,14) + 0.38 y3(8,14) - 0.196 y4(8,14) - 0.196 y5(8,14) - 0.196 y6(8,14) >= 1.65525
 ineq111(9,14): + sol(14) + 0.38 y1(9,14) + 0.38 y2(9,14) + 0.38 y3(9,14) - 0.196 y4(9,14) - 0.196 y5(9,14) - 0.196 y6(9,14) >= 1.65525
 ineq111(13,15): + sol(15) + 0.38 y1(13,15) + 0.38 y2(13,15) + 0.38 y3(13,15) - 0.196 y4(13,15) - 0.196 y5(13,15) - 0.196 y6(13,15) >= 1.65525
 ineq111(9,15): + sol(15) + 0.38 y1(9,15) + 0.38 y2(9,15) + 0.38 y3(9,15) - 0.196 y4(9,15) - 0.196 y5(9,15) - 0.196 y6(9,15) >= 1.65525
 ineq111(14,15): + sol(15) + 0.38 y1(14,15) + 0.38 y2(14,15) + 0.38 y3(14,15) - 0.196 y4(14,15) - 0.196 y5(14,15) - 0.196 y6(14,15) >= 1.65525
 ineq111(14,16): + sol(16) + 0.38 y1(14,16) + 0.38 y2(14,16) + 0.38 y3(14,16) - 0.196 y4(14,16) - 0.196 y5(14,16) - 0.196 y6(14,16) >= 1.65525
 ineq111(9,16): + sol(16) + 0.38 y1(9,16) + 0.38 y2(9,16) + 0.38 y3(9,16) - 0.196 y4(9,16) - 0.196 y5(9,16) - 0.196 y6(9,16) >= 1.65525
 ineq111(12,16): + sol(16) + 0.38 y1(12,16) + 0.38 y2(12,16) + 0.38 y3(12,16) - 0.196 y4(12,16) - 0.196 y5(12,16) - 0.196 y6(12,16) >= 1.65525
 ineq111(14,17): + sol(17) + 0.38 y1(14,17) + 0.38 y2(14,17) + 0.38 y3(14,17) - 0.196 y4(14,17) - 0.196 y5(14,17) - 0.196 y6(14,17) >= 1.65525
 ineq111(12,17): + sol(17) + 0.38 y1(12,17) + 0.38 y2(12,17) + 0.38 y3(12,17) - 0.196 y4(12,17) - 0.196 y5(12,17) - 0.196 y6(12,17) >= 1.65525
 ineq111(7,17): + sol(17) + 0.38 y1(7,17) + 0.38 y2(7,17) + 0.38 y3(7,17) - 0.196 y4(7,17) - 0.196 y5(7,17) - 0.196 y6(7,17) >= 1.65525
 ineq111(14,18): + sol(18) + 0.38 y1(14,18) + 0.38 y2(14,18) + 0.38 y3(14,18) - 0.196 y4(14,18) - 0.196 y5(14,18) - 0.196 y6(14,18) >= 1.65525
 ineq111(7,18): + sol(18) + 0.38 y1(7,18) + 0.38 y2(7,18) + 0.38 y3(7,18) - 0.196 y4(7,18) - 0.196 y5(7,18) - 0.196 y6(7,18) >= 1.65525
 ineq111(11,18): + sol(18) + 0.38 y1(11,18) + 0.38 y2(11,18) + 0.38 y3(11,18) - 0.196 y4(11,18) - 0.196 y5(11,18) - 0.196 y6(11,18) >= 1.65525
 ineq111(11,19): + sol(19) + 0.38 y1(11,19) + 0.38 y2(11,19) + 0.38 y3(11,19) - 0.196 y4(11,19) - 0.196 y5(11,19) - 0.196 y6(11,19) >= 1.65525
 ineq111(13,19): + sol(19) + 0.38 y1(13,19) + 0.38 y2(13,19) + 0.38 y3(13,19) - 0.196 y4(13,19) - 0.196 y5(13,19) - 0.196 y6(13,19) >= 1.65525
 ineq111(14,19): + sol(19) + 0.38 y1(14,19) + 0.38 y2(14,19) + 0.38 y3(14,19) - 0.196 y4(14,19) - 0.196 y5(14,19) - 0.196 y6(14,19) >= 1.65525
 ineq111(6,20): + sol(20) + 0.38 y1(6,20) + 0.38 y2(6,20) + 0.38 y3(6,20) - 0.196 y4(6,20) - 0.196 y5(6,20) - 0.196 y6(6,20) >= 1.65525
 ineq111(3,20): + sol(20) + 0.38 y1(3,20) + 0.38 y2(3,20) + 0.38 y3(3,20) - 0.196 y4(3,20) - 0.196 y5(3,20) - 0.196 y6(3,20) >= 1.65525
 ineq111(2,20): + sol(20) + 0.38 y1(2,20) + 0.38 y2(2,20) + 0.38 y3(2,20) - 0.196 y4(2,20) - 0.196 y5(2,20) - 0.196 y6(2,20) >= 1.65525
 ineq112(1,5): + tau(5) - 0.18 y1(1,5) - 0.18 y2(1,5) - 0.18 y3(1,5) - 0.125 y4(1,5) - 0.125 y5(1,5) - 0.125 y6(1,5) >= -1.831
 ineq112(0,5): + tau(5) - 0.18 y1(0,5) - 0.18 y2(0,5) - 0.18 y3(0,5) - 0.125 y4(0,5) - 0.125 y5(0,5) - 0.125 y6(0,5) >= -1.831
 ineq112(8,5): + tau(5) - 0.18 y1(8,5) - 0.18 y2(8,5) - 0.18 y3(8,5) - 0.125 y4(8,5) - 0.125 y5(8,5) - 0.125 y6(8,5) >= -1.831
 ineq112(10,6): + tau(6) - 0.18 y1(10,6) - 0.18 y2(10,6) - 0.18 y3(10,6) - 0.125 y4(10,6) - 0.125 y5(10,6) - 0.125 y6(10,6) >= -1.831
 ineq112(2,6): + tau(6) - 0.18 y1(2,6) - 0.18 y2(2,6) - 0.18 y3(2,6) - 0.125 y4(2,6) - 0.125 y5(2,6) - 0.125 y6(2,6) >= -1.831
 ineq112(1,6): + tau(6) - 0.18 y1(1,6) - 0.18 y2(1,6) - 0.18 y3(1,6) - 0.125 y4(1,6) - 0.125 y5(1,6) - 0.125 y6(1,6) >= -1.831
 ineq112(10,7): + tau(7) - 0.18 y1(10,7) - 0.18 y2(10,7) - 0.18 y3(10,7) - 0.125 y4(10,7) - 0.125 y5(10,7) - 0.125 y6(10,7) >= -1.831
 ineq112(1,7): + tau(7) - 0.18 y1(1,7) - 0.18 y2(1,7) - 0.18 y3(1,7) - 0.125 y4(1,7) - 0.125 y5(1,7) - 0.125 y6(1,7) >= -1.831
 ineq112(8,7): + tau(7) - 0.18 y1(8,7) - 0.18 y2(8,7) - 0.18 y3(8,7) - 0.125 y4(8,7) - 0.125 y5(8,7) - 0.125 y6(8,7) >= -1.831
 ineq112(7,8): + tau(8) - 0.18 y1(7,8) - 0.18 y2(7,8) - 0.18 y3(7,8) - 0.125 y4(7,8) - 0.125 y5(7,8) - 0.125 y6(7,8) >= -1.831
 ineq112(6,8): + tau(8) - 0.18 y1(6,8) - 0.18 y2(6,8) - 0.18 y3(6,8) - 0.125 y4(6,8) - 0.125 y5(6,8) - 0.125 y6(6,8) >= -1.831
 ineq112(11,8): + tau(8) - 0.18 y1(11,8) - 0.18 y2(11,8) - 0.18 y3(11,8) - 0.125 y4(11,8) - 0.125 y5(11,8) - 0.125 y6(11,8) >= -1.831
 ineq112(9,9): + tau(9) - 0.18 y1(9,9) - 0.18 y2(9,9) - 0.18 y3(9,9) - 0.125 y4(9,9) - 0.125 y5(9,9) - 0.125 y6(9,9) >= -1.831
 ineq112(5,9): + tau(9) - 0.18 y1(5,9) - 0.18 y2(5,9) - 0.18 y3(5,9) - 0.125 y4(5,9) - 0.125 y5(5,9) - 0.125 y6(5,9) >= -1.831
 ineq112(12,9): + tau(9) - 0.18 y1(12,9) - 0.18 y2(12,9) - 0.18 y3(12,9) - 0.125 y4(12,9) - 0.125 y5(12,9) - 0.125 y6(12,9) >= -1.831
 ineq112(12,10): + tau(10) - 0.18 y1(12,10) - 0.18 y2(12,10) - 0.18 y3(12,10) - 0.125 y4(12,10) - 0.125 y5(12,10) - 0.125 y6(12,10) >= -1.831
 ineq112(5,10): + tau(10) - 0.18 y1(5,10) - 0.18 y2(5,10) - 0.18 y3(5,10) - 0.125 y4(5,10) - 0.125 y5(5,10) - 0.125 y6(5,10) >= -1.831
 ineq112(4,10): + tau(10) - 0.18 y1(4,10) - 0.18 y2(4,10) - 0.18 y3(4,10) - 0.125 y4(4,10) - 0.125 y5(4,10) - 0.125 y6(4,10) >= -1.831
 ineq112(12,11): + tau(11) - 0.18 y1(12,11) - 0.18 y2(12,11) - 0.18 y3(12,11) - 0.125 y4(12,11) - 0.125 y5(12,11) - 0.125 y6(12,11) >= -1.831
 ineq112(4,11): + tau(11) - 0.18 y1(4,11) - 0.18 y2(4,11) - 0.18 y3(4,11) - 0.125 y4(4,11) - 0.125 y5(4,11) - 0.125 y6(4,11) >= -1.831
 ineq112(7,11): + tau(11) - 0.18 y1(7,11) - 0.18 y2(7,11) - 0.18 y3(7,11) - 0.125 y4(7,11) - 0.125 y5(7,11) - 0.125 y6(7,11) >= -1.831
 ineq112(11,12): + tau(12) - 0.18 y1(11,12) - 0.18 y2(11,12) - 0.18 y3(11,12) - 0.125 y4(11,12) - 0.125 y5(11,12) - 0.125 y6(11,12) >= -1.831
 ineq112(10,12): + tau(12) - 0.18 y1(10,12) - 0.18 y2(10,12) - 0.18 y3(10,12) - 0.125 y4(10,12) - 0.125 y5(10,12) - 0.125 y6(10,12) >= -1.831
 ineq112(13,12): + tau(12) - 0.18 y1(13,12) - 0.18 y2(13,12) - 0.18 y3(13,12) - 0.125 y4(13,12) - 0.125 y5(13,12) - 0.125 y6(13,12) >= -1.831
 ineq112(13,13): + tau(13) - 0.18 y1(13,13) - 0.18 y2(13,13) - 0.18 y3(13,13) - 0.125 y4(13,13) - 0.125 y5(13,13) - 0.125 y6(13,13) >= -1.831
 ineq112(10,13): + tau(13) - 0.18 y1(10,13) - 0.18 y2(10,13) - 0.18 y3(10,13) - 0.125 y4(10,13) - 0.125 y5(10,13) - 0.125 y6(10,13) >= -1.831
 ineq112(8,13): + tau(13) - 0.18 y1(8,13) - 0.18 y2(8,13) - 0.18 y3(8,13) - 0.125 y4(8,13) - 0.125 y5(8,13) - 0.125 y6(8,13) >= -1.831
 ineq112(13,14): + tau(14) - 0.18 y1(13,14) - 0.18 y2(13,14) - 0.18 y3(13,14) - 0.125 y4(13,14) - 0.125 y5(13,14) - 0.125 y6(13,14) >= -1.831
 ineq112(8,14): + tau(14) - 0.18 y1(8,14) - 0.18 y2(8,14) - 0.18 y3(8,14) - 0.125 y4(8,14) - 0.125 y5(8,14) - 0.125 y6(8,14) >= -1.831
 ineq112(9,14): + tau(14) - 0.18 y1(9,14) - 0.18 y2(9,14) - 0.18 y3(9,14) - 0.125 y4(9,14) - 0.125 y5(9,14) - 0.125 y6(9,14) >= -1.831
 ineq112(13,15): + tau(15) - 0.18 y1(13,15) - 0.18 y2(13,15) - 0.18 y3(13,15) - 0.125 y4(13,15) - 0.125 y5(13,15) - 0.125 y6(13,15) >= -1.831
 ineq112(9,15): + tau(15) - 0.18 y1(9,15) - 0.18 y2(9,15) - 0.18 y3(9,15) - 0.125 y4(9,15) - 0.125 y5(9,15) - 0.125 y6(9,15) >= -1.831
 ineq112(14,15): + tau(15) - 0.18 y1(14,15) - 0.18 y2(14,15) - 0.18 y3(14,15) - 0.125 y4(14,15) - 0.125 y5(14,15) - 0.125 y6(14,15) >= -1.831
 ineq112(14,16): + tau(16) - 0.18 y1(14,16) - 0.18 y2(14,16) - 0.18 y3(14,16) - 0.125 y4(14,16) - 0.125 y5(14,16) - 0.125 y6(14,16) >= -1.831
 ineq112(9,16): + tau(16) - 0.18 y1(9,16) - 0.18 y2(9,16) - 0.18 y3(9,16) - 0.125 y4(9,16) - 0.125 y5(9,16) - 0.125 y6(9,16) >= -1.831
 ineq112(12,16): + tau(16) - 0.18 y1(12,16) - 0.18 y2(12,16) - 0.18 y3(12,16) - 0.125 y4(12,16) - 0.125 y5(12,16) - 0.125 y6(12,16) >= -1.831
 ineq112(14,17): + tau(17) - 0.18 y1(14,17) - 0.18 y2(14,17) - 0.18 y3(14,17) - 0.125 y4(14,17) - 0.125 y5(14,17) - 0.125 y6(14,17) >= -1.831
 ineq112(12,17): + tau(17) - 0.18 y1(12,17) - 0.18 y2(12,17) - 0.18 y3(12,17) - 0.125 y4(12,17) - 0.125 y5(12,17) - 0.125 y6(12,17) >= -1.831
 ineq112(7,17): + tau(17) - 0.18 y1(7,17) - 0.18 y2(7,17) - 0.18 y3(7,17) - 0.125 y4(7,17) - 0.125 y5(7,17) - 0.125 y6(7,17) >= -1.831
 ineq112(14,18): + tau(18) - 0.18 y1(14,18) - 0.18 y2(14,18) - 0.18 y3(14,18) - 0.125 y4(14,18) - 0.125 y5(14,18) - 0.125 y6(14,18) >= -1.831
 ineq112(7,18): + tau(18) - 0.18 y1(7,18) - 0.18 y2(7,18) - 0.18 y3(7,18) - 0.125 y4(7,18) - 0.125 y5(7,18) - 0.125 y6(7,18) >= -1.831
 ineq112(11,18): + tau(18) - 0.18 y1(11,18) - 0.18 y2(11,18) - 0.18 y3(11,18) - 0.125 y4(11,18) - 0.125 y5(11,18) - 0.125 y6(11,18) >= -1.831
 ineq112(11,19): + tau(19) - 0.18 y1(11,19) - 0.18 y2(11,19) - 0.18 y3(11,19) - 0.125 y4(11,19) - 0.125 y5(11,19) - 0.125 y6(11,19) >= -1.831
 ineq112(13,19): + tau(19) - 0.18 y1(13,19) - 0.18 y2(13,19) - 0.18 y3(13,19) - 0.125 y4(13,19) - 0.125 y5(13,19) - 0.125 y6(13,19) >= -1.831
 ineq112(14,19): + tau(19) - 0.18 y1(14,19) - 0.18 y2(14,19) - 0.18 y3(14,19) - 0.125 y4(14,19) - 0.125 y5(14,19) - 0.125 y6(14,19) >= -1.831
 ineq112(6,20): + tau(20) - 0.18 y1(6,20) - 0.18 y2(6,20) - 0.18 y3(6,20) - 0.125 y4(6,20) - 0.125 y5(6,20) - 0.125 y6(6,20) >= -1.831
 ineq112(3,20): + tau(20) - 0.18 y1(3,20) - 0.18 y2(3,20) - 0.18 y3(3,20) - 0.125 y4(3,20) - 0.125 y5(3,20) - 0.125 y6(3,20) >= -1.831
 ineq112(2,20): + tau(20) - 0.18 y1(2,20) - 0.18 y2(2,20) - 0.18 y3(2,20) - 0.125 y4(2,20) - 0.125 y5(2,20) - 0.125 y6(2,20) >= -1.831
 ineq113(1,5): + tau(5) - 0.507 azim(1,5) >= -0.724
 ineq113(0,5): + tau(5) - 0.507 azim(0,5) >= -0.724
 ineq113(8,5): + tau(5) - 0.507 azim(8,5) >= -0.724
 ineq113(10,6): + tau(6) - 0.507 azim(10,6) >= -0.724
 ineq113(2,6): + tau(6) - 0.507 azim(2,6) >= -0.724
 ineq113(1,6): + tau(6) - 0.507 azim(1,6) >= -0.724
 ineq113(10,7): + tau(7) - 0.507 azim(10,7) >= -0.724
 ineq113(1,7): + tau(7) - 0.507 azim(1,7) >= -0.724
 ineq113(8,7): + tau(7) - 0.507 azim(8,7) >= -0.724
 ineq113(7,8): + tau(8) - 0.507 azim(7,8) >= -0.724
 ineq113(6,8): + tau(8) - 0.507 azim(6,8) >= -0.724
 ineq113(11,8): + tau(8) - 0.507 azim(11,8) >= -0.724
 ineq113(9,9): + tau(9) - 0.507 azim(9,9) >= -0.724
 ineq113(5,9): + tau(9) - 0.507 azim(5,9) >= -0.724
 ineq113(12,9): + tau(9) - 0.507 azim(12,9) >= -0.724
 ineq113(12,10): + tau(10) - 0.507 azim(12,10) >= -0.724
 ineq113(5,10): + tau(10) - 0.507 azim(5,10) >= -0.724
 ineq113(4,10): + tau(10) - 0.507 azim(4,10) >= -0.724
 ineq113(12,11): + tau(11) - 0.507 azim(12,11) >= -0.724
 ineq113(4,11): + tau(11) - 0.507 azim(4,11) >= -0.724
 ineq113(7,11): + tau(11) - 0.507 azim(7,11) >= -0.724
 ineq113(11,12): + tau(12) - 0.507 azim(11,12) >= -0.724
 ineq113(10,12): + tau(12) - 0.507 azim(10,12) >= -0.724
 ineq113(13,12): + tau(12) - 0.507 azim(13,12) >= -0.724
 ineq113(13,13): + tau(13) - 0.507 azim(13,13) >= -0.724
 ineq113(10,13): + tau(13) - 0.507 azim(10,13) >= -0.724
 ineq113(8,13): + tau(13) - 0.507 azim(8,13) >= -0.724
 ineq113(13,14): + tau(14) - 0.507 azim(13,14) >= -0.724
 ineq113(8,14): + tau(14) - 0.507 azim(8,14) >= -0.724
 ineq113(9,14): + tau(14) - 0.507 azim(9,14) >= -0.724
 ineq113(13,15): + tau(15) - 0.507 azim(13,15) >= -0.724
 ineq113(9,15): + tau(15) - 0.507 azim(9,15) >= -0.724
 ineq113(14,15): + tau(15) - 0.507 azim(14,15) >= -0.724
 ineq113(14,16): + tau(16) - 0.507 azim(14,16) >= -0.724
 ineq113(9,16): + tau(16) - 0.507 azim(9,16) >= -0.724
 ineq113(12,16): + tau(16) - 0.507 azim(12,16) >= -0.724
 ineq113(14,17): + tau(17) - 0.507 azim(14,17) >= -0.724
 ineq113(12,17): + tau(17) - 0.507 azim(12,17) >= -0.724
 ineq113(7,17): + tau(17) - 0.507 azim(7,17) >= -0.724
 ineq113(14,18): + tau(18) - 0.507 azim(14,18) >= -0.724
 ineq113(7,18): + tau(18) - 0.507 azim(7,18) >= -0.724
 ineq113(11,18): + tau(18) - 0.507 azim(11,18) >= -0.724
 ineq113(11,19): + tau(19) - 0.507 azim(11,19) >= -0.724
 ineq113(13,19): + tau(19) - 0.507 azim(13,19) >= -0.724
 ineq113(14,19): + tau(19) - 0.507 azim(14,19) >= -0.724
 ineq113(6,20): + tau(20) - 0.507 azim(6,20) >= -0.724
 ineq113(3,20): + tau(20) - 0.507 azim(3,20) >= -0.724
 ineq113(2,20): + tau(20) - 0.507 azim(2,20) >= -0.724
 ineq114(1,5): + tau(5) - 0.259 azim(1,5) >= -0.32
 ineq114(0,5): + tau(5) - 0.259 azim(0,5) >= -0.32
 ineq114(8,5): + tau(5) - 0.259 azim(8,5) >= -0.32
 ineq114(10,6): + tau(6) - 0.259 azim(10,6) >= -0.32
 ineq114(2,6): + tau(6) - 0.259 azim(2,6) >= -0.32
 ineq114(1,6): + tau(6) - 0.259 azim(1,6) >= -0.32
 ineq114(10,7): + tau(7) - 0.259 azim(10,7) >= -0.32
 ineq114(1,7): + tau(7) - 0.259 azim(1,7) >= -0.32
 ineq114(8,7): + tau(7) - 0.259 azim(8,7) >= -0.32
 ineq114(7,8): + tau(8) - 0.259 azim(7,8) >= -0.32
 ineq114(6,8): + tau(8) - 0.259 azim(6,8) >= -0.32
 ineq114(11,8): + tau(8) - 0.259 azim(11,8) >= -0.32
 ineq114(9,9): + tau(9) - 0.259 azim(9,9) >= -0.32
 ineq114(5,9): + tau(9) - 0.259 azim(5,9) >= -0.32
 ineq114(12,9): + tau(9) - 0.259 azim(12,9) >= -0.32
 ineq114(12,10): + tau(10) - 0.259 azim(12,10) >= -0.32
 ineq114(5,10): + tau(10) - 0.259 azim(5,10) >= -0.32
 ineq114(4,10): + tau(10) - 0.259 azim(4,10) >= -0.32
 ineq114(12,11): + tau(11) - 0.259 azim(12,11) >= -0.32
 ineq114(4,11): + tau(11) - 0.259 azim(4,11) >= -0.32
 ineq114(7,11): + tau(11) - 0.259 azim(7,11) >= -0.32
 ineq114(11,12): + tau(12) - 0.259 azim(11,12) >= -0.32
 ineq114(10,12): + tau(12) - 0.259 azim(10,12) >= -0.32
 ineq114(13,12): + tau(12) - 0.259 azim(13,12) >= -0.32
 ineq114(13,13): + tau(13) - 0.259 azim(13,13) >= -0.32
 ineq114(10,13): + tau(13) - 0.259 azim(10,13) >= -0.32
 ineq114(8,13): + tau(13) - 0.259 azim(8,13) >= -0.32
 ineq114(13,14): + tau(14) - 0.259 azim(13,14) >= -0.32
 ineq114(8,14): + tau(14) - 0.259 azim(8,14) >= -0.32
 ineq114(9,14): + tau(14) - 0.259 azim(9,14) >= -0.32
 ineq114(13,15): + tau(15) - 0.259 azim(13,15) >= -0.32
 ineq114(9,15): + tau(15) - 0.259 azim(9,15) >= -0.32
 ineq114(14,15): + tau(15) - 0.259 azim(14,15) >= -0.32
 ineq114(14,16): + tau(16) - 0.259 azim(14,16) >= -0.32
 ineq114(9,16): + tau(16) - 0.259 azim(9,16) >= -0.32
 ineq114(12,16): + tau(16) - 0.259 azim(12,16) >= -0.32
 ineq114(14,17): + tau(17) - 0.259 azim(14,17) >= -0.32
 ineq114(12,17): + tau(17) - 0.259 azim(12,17) >= -0.32
 ineq114(7,17): + tau(17) - 0.259 azim(7,17) >= -0.32
 ineq114(14,18): + tau(18) - 0.259 azim(14,18) >= -0.32
 ineq114(7,18): + tau(18) - 0.259 azim(7,18) >= -0.32
 ineq114(11,18): + tau(18) - 0.259 azim(11,18) >= -0.32
 ineq114(11,19): + tau(19) - 0.259 azim(11,19) >= -0.32
 ineq114(13,19): + tau(19) - 0.259 azim(13,19) >= -0.32
 ineq114(14,19): + tau(19) - 0.259 azim(14,19) >= -0.32
 ineq114(6,20): + tau(20) - 0.259 azim(6,20) >= -0.32
 ineq114(3,20): + tau(20) - 0.259 azim(3,20) >= -0.32
 ineq114(2,20): + tau(20) - 0.259 azim(2,20) >= -0.32
 ineq115(1,5): + tau(5) + 0.626 azim(1,5) >= 0.77
 ineq115(0,5): + tau(5) + 0.626 azim(0,5) >= 0.77
 ineq115(8,5): + tau(5) + 0.626 azim(8,5) >= 0.77
 ineq115(10,6): + tau(6) + 0.626 azim(10,6) >= 0.77
 ineq115(2,6): + tau(6) + 0.626 azim(2,6) >= 0.77
 ineq115(1,6): + tau(6) + 0.626 azim(1,6) >= 0.77
 ineq115(10,7): + tau(7) + 0.626 azim(10,7) >= 0.77
 ineq115(1,7): + tau(7) + 0.626 azim(1,7) >= 0.77
 ineq115(8,7): + tau(7) + 0.626 azim(8,7) >= 0.77
 ineq115(7,8): + tau(8) + 0.626 azim(7,8) >= 0.77
 ineq115(6,8): + tau(8) + 0.626 azim(6,8) >= 0.77
 ineq115(11,8): + tau(8) + 0.626 azim(11,8) >= 0.77
 ineq115(9,9): + tau(9) + 0.626 azim(9,9) >= 0.77
 ineq115(5,9): + tau(9) + 0.626 azim(5,9) >= 0.77
 ineq115(12,9): + tau(9) + 0.626 azim(12,9) >= 0.77
 ineq115(12,10): + tau(10) + 0.626 azim(12,10) >= 0.77
 ineq115(5,10): + tau(10) + 0.626 azim(5,10) >= 0.77
 ineq115(4,10): + tau(10) + 0.626 azim(4,10) >= 0.77
 ineq115(12,11): + tau(11) + 0.626 azim(12,11) >= 0.77
 ineq115(4,11): + tau(11) + 0.626 azim(4,11) >= 0.77
 ineq115(7,11): + tau(11) + 0.626 azim(7,11) >= 0.77
 ineq115(11,12): + tau(12) + 0.626 azim(11,12) >= 0.77
 ineq115(10,12): + tau(12) + 0.626 azim(10,12) >= 0.77
 ineq115(13,12): + tau(12) + 0.626 azim(13,12) >= 0.77
 ineq115(13,13): + tau(13) + 0.626 azim(13,13) >= 0.77
 ineq115(10,13): + tau(13) + 0.626 azim(10,13) >= 0.77
 ineq115(8,13): + tau(13) + 0.626 azim(8,13) >= 0.77
 ineq115(13,14): + tau(14) + 0.626 azim(13,14) >= 0.77
 ineq115(8,14): + tau(14) + 0.626 azim(8,14) >= 0.77
 ineq115(9,14): + tau(14) + 0.626 azim(9,14) >= 0.77
 ineq115(13,15): + tau(15) + 0.626 azim(13,15) >= 0.77
 ineq115(9,15): + tau(15) + 0.626 azim(9,15) >= 0.77
 ineq115(14,15): + tau(15) + 0.626 azim(14,15) >= 0.77
 ineq115(14,16): + tau(16) + 0.626 azim(14,16) >= 0.77
 ineq115(9,16): + tau(16) + 0.626 azim(9,16) >= 0.77
 ineq115(12,16): + tau(16) + 0.626 azim(12,16) >= 0.77
 ineq115(14,17): + tau(17) + 0.626 azim(14,17) >= 0.77
 ineq115(12,17): + tau(17) + 0.626 azim(12,17) >= 0.77
 ineq115(7,17): + tau(17) + 0.626 azim(7,17) >= 0.77
 ineq115(14,18): + tau(18) + 0.626 azim(14,18) >= 0.77
 ineq115(7,18): + tau(18) + 0.626 azim(7,18) >= 0.77
 ineq115(11,18): + tau(18) + 0.626 azim(11,18) >= 0.77
 ineq115(11,19): + tau(19) + 0.626 azim(11,19) >= 0.77
 ineq115(13,19): + tau(19) + 0.626 azim(13,19) >= 0.77
 ineq115(14,19): + tau(19) + 0.626 azim(14,19) >= 0.77
 ineq115(6,20): + tau(20) + 0.626 azim(6,20) >= 0.77
 ineq115(3,20): + tau(20) + 0.626 azim(3,20) >= 0.77
 ineq115(2,20): + tau(20) + 0.626 azim(2,20) >= 0.77
 ineq116(1,5): - azim(1,5) >= -1.893
 ineq116(0,5): - azim(0,5) >= -1.893
 ineq116(8,5): - azim(8,5) >= -1.893
 ineq116(10,6): - azim(10,6) >= -1.893
 ineq116(2,6): - azim(2,6) >= -1.893
 ineq116(1,6): - azim(1,6) >= -1.893
 ineq116(10,7): - azim(10,7) >= -1.893
 ineq116(1,7): - azim(1,7) >= -1.893
 ineq116(8,7): - azim(8,7) >= -1.893
 ineq116(7,8): - azim(7,8) >= -1.893
 ineq116(6,8): - azim(6,8) >= -1.893
 ineq116(11,8): - azim(11,8) >= -1.893
 ineq116(9,9): - azim(9,9) >= -1.893
 ineq116(5,9): - azim(5,9) >= -1.893
 ineq116(12,9): - azim(12,9) >= -1.893
 ineq116(12,10): - azim(12,10) >= -1.893
 ineq116(5,10): - azim(5,10) >= -1.893
 ineq116(4,10): - azim(4,10) >= -1.893
 ineq116(12,11): - azim(12,11) >= -1.893
 ineq116(4,11): - azim(4,11) >= -1.893
 ineq116(7,11): - azim(7,11) >= -1.893
 ineq116(11,12): - azim(11,12) >= -1.893
 ineq116(10,12): - azim(10,12) >= -1.893
 ineq116(13,12): - azim(13,12) >= -1.893
 ineq116(13,13): - azim(13,13) >= -1.893
 ineq116(10,13): - azim(10,13) >= -1.893
 ineq116(8,13): - azim(8,13) >= -1.893
 ineq116(13,14): - azim(13,14) >= -1.893
 ineq116(8,14): - azim(8,14) >= -1.893
 ineq116(9,14): - azim(9,14) >= -1.893
 ineq116(13,15): - azim(13,15) >= -1.893
 ineq116(9,15): - azim(9,15) >= -1.893
 ineq116(14,15): - azim(14,15) >= -1.893
 ineq116(14,16): - azim(14,16) >= -1.893
 ineq116(9,16): - azim(9,16) >= -1.893
 ineq116(12,16): - azim(12,16) >= -1.893
 ineq116(14,17): - azim(14,17) >= -1.893
 ineq116(12,17): - azim(12,17) >= -1.893
 ineq116(7,17): - azim(7,17) >= -1.893
 ineq116(14,18): - azim(14,18) >= -1.893
 ineq116(7,18): - azim(7,18) >= -1.893
 ineq116(11,18): - azim(11,18) >= -1.893
 ineq116(11,19): - azim(11,19) >= -1.893
 ineq116(13,19): - azim(13,19) >= -1.893
 ineq116(14,19): - azim(14,19) >= -1.893
 ineq116(6,20): - azim(6,20) >= -1.893
 ineq116(3,20): - azim(3,20) >= -1.893
 ineq116(2,20): - azim(2,20) >= -1.893
 ineq117(1,5): + azim(1,5) >= 0.852
 ineq117(0,5): + azim(0,5) >= 0.852
 ineq117(8,5): + azim(8,5) >= 0.852
 ineq117(10,6): + azim(10,6) >= 0.852
 ineq117(2,6): + azim(2,6) >= 0.852
 ineq117(1,6): + azim(1,6) >= 0.852
 ineq117(10,7): + azim(10,7) >= 0.852
 ineq117(1,7): + azim(1,7) >= 0.852
 ineq117(8,7): + azim(8,7) >= 0.852
 ineq117(7,8): + azim(7,8) >= 0.852
 ineq117(6,8): + azim(6,8) >= 0.852
 ineq117(11,8): + azim(11,8) >= 0.852
 ineq117(9,9): + azim(9,9) >= 0.852
 ineq117(5,9): + azim(5,9) >= 0.852
 ineq117(12,9): + azim(12,9) >= 0.852
 ineq117(12,10): + azim(12,10) >= 0.852
 ineq117(5,10): + azim(5,10) >= 0.852
 ineq117(4,10): + azim(4,10) >= 0.852
 ineq117(12,11): + azim(12,11) >= 0.852
 ineq117(4,11): + azim(4,11) >= 0.852
 ineq117(7,11): + azim(7,11) >= 0.852
 ineq117(11,12): + azim(11,12) >= 0.852
 ineq117(10,12): + azim(10,12) >= 0.852
 ineq117(13,12): + azim(13,12) >= 0.852
 ineq117(13,13): + azim(13,13) >= 0.852
 ineq117(10,13): + azim(10,13) >= 0.852
 ineq117(8,13): + azim(8,13) >= 0.852
 ineq117(13,14): + azim(13,14) >= 0.852
 ineq117(8,14): + azim(8,14) >= 0.852
 ineq117(9,14): + azim(9,14) >= 0.852
 ineq117(13,15): + azim(13,15) >= 0.852
 ineq117(9,15): + azim(9,15) >= 0.852
 ineq117(14,15): + azim(14,15) >= 0.852
 ineq117(14,16): + azim(14,16) >= 0.852
 ineq117(9,16): + azim(9,16) >= 0.852
 ineq117(12,16): + azim(12,16) >= 0.852
 ineq117(14,17): + azim(14,17) >= 0.852
 ineq117(12,17): + azim(12,17) >= 0.852
 ineq117(7,17): + azim(7,17) >= 0.852
 ineq117(14,18): + azim(14,18) >= 0.852
 ineq117(7,18): + azim(7,18) >= 0.852
 ineq117(11,18): + azim(11,18) >= 0.852
 ineq117(11,19): + azim(11,19) >= 0.852
 ineq117(13,19): + azim(13,19) >= 0.852
 ineq117(14,19): + azim(14,19) >= 0.852
 ineq117(6,20): + azim(6,20) >= 0.852
 ineq117(3,20): + azim(3,20) >= 0.852
 ineq117(2,20): + azim(2,20) >= 0.852
 ineq119(4,0): + tau(0) - 0.453 azim(4,0) >= -0.777
 ineq119(3,0): + tau(0) - 0.453 azim(3,0) >= -0.777
 ineq119(6,0): + tau(0) - 0.453 azim(6,0) >= -0.777
 ineq119(7,0): + tau(0) - 0.453 azim(7,0) >= -0.777
 ineq119(8,1): + tau(1) - 0.453 azim(8,1) >= -0.777
 ineq119(0,1): + tau(1) - 0.453 azim(0,1) >= -0.777
 ineq119(5,1): + tau(1) - 0.453 azim(5,1) >= -0.777
 ineq119(9,1): + tau(1) - 0.453 azim(9,1) >= -0.777
 ineq119(6,2): + tau(2) - 0.453 azim(6,2) >= -0.777
 ineq119(2,2): + tau(2) - 0.453 azim(2,2) >= -0.777
 ineq119(10,2): + tau(2) - 0.453 azim(10,2) >= -0.777
 ineq119(11,2): + tau(2) - 0.453 azim(11,2) >= -0.777
 ineq119(0,3): + tau(3) - 0.453 azim(0,3) >= -0.777
 ineq119(1,3): + tau(3) - 0.453 azim(1,3) >= -0.777
 ineq119(2,3): + tau(3) - 0.453 azim(2,3) >= -0.777
 ineq119(3,3): + tau(3) - 0.453 azim(3,3) >= -0.777
 ineq119(0,4): + tau(4) - 0.453 azim(0,4) >= -0.777
 ineq119(3,4): + tau(4) - 0.453 azim(3,4) >= -0.777
 ineq119(4,4): + tau(4) - 0.453 azim(4,4) >= -0.777
 ineq119(5,4): + tau(4) - 0.453 azim(5,4) >= -0.777
 ineq120(4,0): + tau(0) + 0.7573 azim(4,0) >= 1.433
 ineq120(3,0): + tau(0) + 0.7573 azim(3,0) >= 1.433
 ineq120(6,0): + tau(0) + 0.7573 azim(6,0) >= 1.433
 ineq120(7,0): + tau(0) + 0.7573 azim(7,0) >= 1.433
 ineq120(8,1): + tau(1) + 0.7573 azim(8,1) >= 1.433
 ineq120(0,1): + tau(1) + 0.7573 azim(0,1) >= 1.433
 ineq120(5,1): + tau(1) + 0.7573 azim(5,1) >= 1.433
 ineq120(9,1): + tau(1) + 0.7573 azim(9,1) >= 1.433
 ineq120(6,2): + tau(2) + 0.7573 azim(6,2) >= 1.433
 ineq120(2,2): + tau(2) + 0.7573 azim(2,2) >= 1.433
 ineq120(10,2): + tau(2) + 0.7573 azim(10,2) >= 1.433
 ineq120(11,2): + tau(2) + 0.7573 azim(11,2) >= 1.433
 ineq120(0,3): + tau(3) + 0.7573 azim(0,3) >= 1.433
 ineq120(1,3): + tau(3) + 0.7573 azim(1,3) >= 1.433
 ineq120(2,3): + tau(3) + 0.7573 azim(2,3) >= 1.433
 ineq120(3,3): + tau(3) + 0.7573 azim(3,3) >= 1.433
 ineq120(0,4): + tau(4) + 0.7573 azim(0,4) >= 1.433
 ineq120(3,4): + tau(4) + 0.7573 azim(3,4) >= 1.433
 ineq120(4,4): + tau(4) + 0.7573 azim(4,4) >= 1.433
 ineq120(5,4): + tau(4) + 0.7573 azim(5,4) >= 1.433
 bdhi__azim(0,1): + azim(0,1) <= 3.14159265358979
 bdhi__azim(0,3): + azim(0,3) <= 3.14159265358979
 bdhi__azim(0,4): + azim(0,4) <= 3.14159265358979
 bdhi__azim(0,5): + azim(0,5) <= 3.14159265358979
 bdhi__azim(1,3): + azim(1,3) <= 3.14159265358979
 bdhi__azim(1,5): + azim(1,5) <= 3.14159265358979
 bdhi__azim(1,6): + azim(1,6) <= 3.14159265358979
 bdhi__azim(1,7): + azim(1,7) <= 3.14159265358979
 bdhi__azim(2,2): + azim(2,2) <= 3.14159265358979
 bdhi__azim(2,3): + azim(2,3) <= 3.14159265358979
 bdhi__azim(2,6): + azim(2,6) <= 3.14159265358979
 bdhi__azim(2,20): + azim(2,20) <= 3.14159265358979
 bdhi__azim(3,0): + azim(3,0) <= 3.14159265358979
 bdhi__azim(3,3): + azim(3,3) <= 3.14159265358979
 bdhi__azim(3,4): + azim(3,4) <= 3.14159265358979
 bdhi__azim(3,20): + azim(3,20) <= 3.14159265358979
 bdhi__azim(4,0): + azim(4,0) <= 3.14159265358979
 bdhi__azim(4,4): + azim(4,4) <= 3.14159265358979
 bdhi__azim(4,10): + azim(4,10) <= 3.14159265358979
 bdhi__azim(4,11): + azim(4,11) <= 3.14159265358979
 bdhi__azim(5,1): + azim(5,1) <= 3.14159265358979
 bdhi__azim(5,4): + azim(5,4) <= 3.14159265358979
 bdhi__azim(5,9): + azim(5,9) <= 3.14159265358979
 bdhi__azim(5,10): + azim(5,10) <= 3.14159265358979
 bdhi__azim(6,0): + azim(6,0) <= 3.14159265358979
 bdhi__azim(6,2): + azim(6,2) <= 3.14159265358979
 bdhi__azim(6,8): + azim(6,8) <= 3.14159265358979
 bdhi__azim(6,20): + azim(6,20) <= 3.14159265358979
 bdhi__azim(7,0): + azim(7,0) <= 3.14159265358979
 bdhi__azim(7,8): + azim(7,8) <= 3.14159265358979
 bdhi__azim(7,11): + azim(7,11) <= 3.14159265358979
 bdhi__azim(7,17): + azim(7,17) <= 3.14159265358979
 bdhi__azim(7,18): + azim(7,18) <= 3.14159265358979
 bdhi__azim(8,1): + azim(8,1) <= 3.14159265358979
 bdhi__azim(8,5): + azim(8,5) <= 3.14159265358979
 bdhi__azim(8,7): + azim(8,7) <= 3.14159265358979
 bdhi__azim(8,13): + azim(8,13) <= 3.14159265358979
 bdhi__azim(8,14): + azim(8,14) <= 3.14159265358979
 bdhi__azim(9,1): + azim(9,1) <= 3.14159265358979
 bdhi__azim(9,9): + azim(9,9) <= 3.14159265358979
 bdhi__azim(9,14): + azim(9,14) <= 3.14159265358979
 bdhi__azim(9,15): + azim(9,15) <= 3.14159265358979
 bdhi__azim(9,16): + azim(9,16) <= 3.14159265358979
 bdhi__azim(10,2): + azim(10,2) <= 3.14159265358979
 bdhi__azim(10,6): + azim(10,6) <= 3.14159265358979
 bdhi__azim(10,7): + azim(10,7) <= 3.14159265358979
 bdhi__azim(10,12): + azim(10,12) <= 3.14159265358979
 bdhi__azim(10,13): + azim(10,13) <= 3.14159265358979
 bdhi__azim(11,2): + azim(11,2) <= 3.14159265358979
 bdhi__azim(11,8): + azim(11,8) <= 3.14159265358979
 bdhi__azim(11,12): + azim(11,12) <= 3.14159265358979
 bdhi__azim(11,18): + azim(11,18) <= 3.14159265358979
 bdhi__azim(11,19): + azim(11,19) <= 3.14159265358979
 bdhi__azim(12,9): + azim(12,9) <= 3.14159265358979
 bdhi__azim(12,10): + azim(12,10) <= 3.14159265358979
 bdhi__azim(12,11): + azim(12,11) <= 3.14159265358979
 bdhi__azim(12,16): + azim(12,16) <= 3.14159265358979
 bdhi__azim(12,17): + azim(12,17) <= 3.14159265358979
 bdhi__azim(13,12): + azim(13,12) <= 3.14159265358979
 bdhi__azim(13,13): + azim(13,13) <= 3.14159265358979
 bdhi__azim(13,14): + azim(13,14) <= 3.14159265358979
 bdhi__azim(13,15): + azim(13,15) <= 3.14159265358979
 bdhi__azim(13,19): + azim(13,19) <= 3.14159265358979
 bdhi__azim(14,15): + azim(14,15) <= 3.14159265358979
 bdhi__azim(14,16): + azim(14,16) <= 3.14159265358979
 bdhi__azim(14,17): + azim(14,17) <= 3.14159265358979
 bdhi__azim(14,18): + azim(14,18) <= 3.14159265358979
 bdhi__azim(14,19): + azim(14,19) <= 3.14159265358979
 bdhi__azim2(0,5): + azim2(0,5) <= 3.14159265358979
 bdhi__azim2(8,5): + azim2(8,5) <= 3.14159265358979
 bdhi__azim2(1,5): + azim2(1,5) <= 3.14159265358979
 bdhi__azim2(2,6): + azim2(2,6) <= 3.14159265358979
 bdhi__azim2(1,6): + azim2(1,6) <= 3.14159265358979
 bdhi__azim2(10,6): + azim2(10,6) <= 3.14159265358979
 bdhi__azim2(1,7): + azim2(1,7) <= 3.14159265358979
 bdhi__azim2(8,7): + azim2(8,7) <= 3.14159265358979
 bdhi__azim2(10,7): + azim2(10,7) <= 3.14159265358979
 bdhi__azim2(6,8): + azim2(6,8) <= 3.14159265358979
 bdhi__azim2(11,8): + azim2(11,8) <= 3.14159265358979
 bdhi__azim2(7,8): + azim2(7,8) <= 3.14159265358979
 bdhi__azim2(5,9): + azim2(5,9) <= 3.14159265358979
 bdhi__azim2(12,9): + azim2(12,9) <= 3.14159265358979
 bdhi__azim2(9,9): + azim2(9,9) <= 3.14159265358979
 bdhi__azim2(5,10): + azim2(5,10) <= 3.14159265358979
 bdhi__azim2(4,10): + azim2(4,10) <= 3.14159265358979
 bdhi__azim2(12,10): + azim2(12,10) <= 3.14159265358979
 bdhi__azim2(4,11): + azim2(4,11) <= 3.14159265358979
 bdhi__azim2(7,11): + azim2(7,11) <= 3.14159265358979
 bdhi__azim2(12,11): + azim2(12,11) <= 3.14159265358979
 bdhi__azim2(10,12): + azim2(10,12) <= 3.14159265358979
 bdhi__azim2(13,12): + azim2(13,12) <= 3.14159265358979
 bdhi__azim2(11,12): + azim2(11,12) <= 3.14159265358979
 bdhi__azim2(10,13): + azim2(10,13) <= 3.14159265358979
 bdhi__azim2(8,13): + azim2(8,13) <= 3.14159265358979
 bdhi__azim2(13,13): + azim2(13,13) <= 3.14159265358979
 bdhi__azim2(8,14): + azim2(8,14) <= 3.14159265358979
 bdhi__azim2(9,14): + azim2(9,14) <= 3.14159265358979
 bdhi__azim2(13,14): + azim2(13,14) <= 3.14159265358979
 bdhi__azim2(9,15): + azim2(9,15) <= 3.14159265358979
 bdhi__azim2(14,15): + azim2(14,15) <= 3.14159265358979
 bdhi__azim2(13,15): + azim2(13,15) <= 3.14159265358979
 bdhi__azim2(9,16): + azim2(9,16) <= 3.14159265358979
 bdhi__azim2(12,16): + azim2(12,16) <= 3.14159265358979
 bdhi__azim2(14,16): + azim2(14,16) <= 3.14159265358979
 bdhi__azim2(12,17): + azim2(12,17) <= 3.14159265358979
 bdhi__azim2(7,17): + azim2(7,17) <= 3.14159265358979
 bdhi__azim2(14,17): + azim2(14,17) <= 3.14159265358979
 bdhi__azim2(7,18): + azim2(7,18) <= 3.14159265358979
 bdhi__azim2(11,18): + azim2(11,18) <= 3.14159265358979
 bdhi__azim2(14,18): + azim2(14,18) <= 3.14159265358979
 bdhi__azim2(13,19): + azim2(13,19) <= 3.14159265358979
 bdhi__azim2(14,19): + azim2(14,19) <= 3.14159265358979
 bdhi__azim2(11,19): + azim2(11,19) <= 3.14159265358979
 bdhi__azim2(3,20): + azim2(3,20) <= 3.14159265358979
 bdhi__azim2(2,20): + azim2(2,20) <= 3.14159265358979
 bdhi__azim2(6,20): + azim2(6,20) <= 3.14159265358979
 bdhi__azim3(0,5): + azim3(0,5) <= 3.14159265358979
 bdhi__azim3(8,5): + azim3(8,5) <= 3.14159265358979
 bdhi__azim3(1,5): + azim3(1,5) <= 3.14159265358979
 bdhi__azim3(2,6): + azim3(2,6) <= 3.14159265358979
 bdhi__azim3(1,6): + azim3(1,6) <= 3.14159265358979
 bdhi__azim3(10,6): + azim3(10,6) <= 3.14159265358979
 bdhi__azim3(1,7): + azim3(1,7) <= 3.14159265358979
 bdhi__azim3(8,7): + azim3(8,7) <= 3.14159265358979
 bdhi__azim3(10,7): + azim3(10,7) <= 3.14159265358979
 bdhi__azim3(6,8): + azim3(6,8) <= 3.14159265358979
 bdhi__azim3(11,8): + azim3(11,8) <= 3.14159265358979
 bdhi__azim3(7,8): + azim3(7,8) <= 3.14159265358979
 bdhi__azim3(5,9): + azim3(5,9) <= 3.14159265358979
 bdhi__azim3(12,9): + azim3(12,9) <= 3.14159265358979
 bdhi__azim3(9,9): + azim3(9,9) <= 3.14159265358979
 bdhi__azim3(5,10): + azim3(5,10) <= 3.14159265358979
 bdhi__azim3(4,10): + azim3(4,10) <= 3.14159265358979
 bdhi__azim3(12,10): + azim3(12,10) <= 3.14159265358979
 bdhi__azim3(4,11): + azim3(4,11) <= 3.14159265358979
 bdhi__azim3(7,11): + azim3(7,11) <= 3.14159265358979
 bdhi__azim3(12,11): + azim3(12,11) <= 3.14159265358979
 bdhi__azim3(10,12): + azim3(10,12) <= 3.14159265358979
 bdhi__azim3(13,12): + azim3(13,12) <= 3.14159265358979
 bdhi__azim3(11,12): + azim3(11,12) <= 3.14159265358979
 bdhi__azim3(10,13): + azim3(10,13) <= 3.14159265358979
 bdhi__azim3(8,13): + azim3(8,13) <= 3.14159265358979
 bdhi__azim3(13,13): + azim3(13,13) <= 3.14159265358979
 bdhi__azim3(8,14): + azim3(8,14) <= 3.14159265358979
 bdhi__azim3(9,14): + azim3(9,14) <= 3.14159265358979
 bdhi__azim3(13,14): + azim3(13,14) <= 3.14159265358979
 bdhi__azim3(9,15): + azim3(9,15) <= 3.14159265358979
 bdhi__azim3(14,15): + azim3(14,15) <= 3.14159265358979
 bdhi__azim3(13,15): + azim3(13,15) <= 3.14159265358979
 bdhi__azim3(9,16): + azim3(9,16) <= 3.14159265358979
 bdhi__azim3(12,16): + azim3(12,16) <= 3.14159265358979
 bdhi__azim3(14,16): + azim3(14,16) <= 3.14159265358979
 bdhi__azim3(12,17): + azim3(12,17) <= 3.14159265358979
 bdhi__azim3(7,17): + azim3(7,17) <= 3.14159265358979
 bdhi__azim3(14,17): + azim3(14,17) <= 3.14159265358979
 bdhi__azim3(7,18): + azim3(7,18) <= 3.14159265358979
 bdhi__azim3(11,18): + azim3(11,18) <= 3.14159265358979
 bdhi__azim3(14,18): + azim3(14,18) <= 3.14159265358979
 bdhi__azim3(13,19): + azim3(13,19) <= 3.14159265358979
 bdhi__azim3(14,19): + azim3(14,19) <= 3.14159265358979
 bdhi__azim3(11,19): + azim3(11,19) <= 3.14159265358979
 bdhi__azim3(3,20): + azim3(3,20) <= 3.14159265358979
 bdhi__azim3(2,20): + azim3(2,20) <= 3.14159265358979
 bdhi__azim3(6,20): + azim3(6,20) <= 3.14159265358979
 bdhi__ln(0): + ln(0) <= 1
 bdhi__ln(1): + ln(1) <= 1
 bdhi__ln(2): + ln(2) <= 1
 bdhi__ln(3): + ln(3) <= 1
 bdhi__ln(4): + ln(4) <= 1
 bdhi__ln(5): + ln(5) <= 1
 bdhi__ln(6): + ln(6) <= 1
 bdhi__ln(7): + ln(7) <= 1
 bdhi__ln(8): + ln(8) <= 1
 bdhi__ln(9): + ln(9) <= 1
 bdhi__ln(10): + ln(10) <= 1
 bdhi__ln(11): + ln(11) <= 1
 bdhi__ln(12): + ln(12) <= 1
 bdhi__ln(13): + ln(13) <= 1
 bdhi__ln(14): + ln(14) <= 1
 bdhi__rhazim(0,1): + rhazim(0,1) <= 3.69287825202232
 bdhi__rhazim(0,3): + rhazim(0,3) <= 3.69287825202232
 bdhi__rhazim(0,4): + rhazim(0,4) <= 3.69287825202232
 bdhi__rhazim(0,5): + rhazim(0,5) <= 3.69287825202232
 bdhi__rhazim(1,3): + rhazim(1,3) <= 3.69287825202232
 bdhi__rhazim(1,5): + rhazim(1,5) <= 3.69287825202232
 bdhi__rhazim(1,6): + rhazim(1,6) <= 3.69287825202232
 bdhi__rhazim(1,7): + rhazim(1,7) <= 3.69287825202232
 bdhi__rhazim(2,2): + rhazim(2,2) <= 3.69287825202232
 bdhi__rhazim(2,3): + rhazim(2,3) <= 3.69287825202232
 bdhi__rhazim(2,6): + rhazim(2,6) <= 3.69287825202232
 bdhi__rhazim(2,20): + rhazim(2,20) <= 3.69287825202232
 bdhi__rhazim(3,0): + rhazim(3,0) <= 3.69287825202232
 bdhi__rhazim(3,3): + rhazim(3,3) <= 3.69287825202232
 bdhi__rhazim(3,4): + rhazim(3,4) <= 3.69287825202232
 bdhi__rhazim(3,20): + rhazim(3,20) <= 3.69287825202232
 bdhi__rhazim(4,0): + rhazim(4,0) <= 3.69287825202232
 bdhi__rhazim(4,4): + rhazim(4,4) <= 3.69287825202232
 bdhi__rhazim(4,10): + rhazim(4,10) <= 3.69287825202232
 bdhi__rhazim(4,11): + rhazim(4,11) <= 3.69287825202232
 bdhi__rhazim(5,1): + rhazim(5,1) <= 3.69287825202232
 bdhi__rhazim(5,4): + rhazim(5,4) <= 3.69287825202232
 bdhi__rhazim(5,9): + rhazim(5,9) <= 3.69287825202232
 bdhi__rhazim(5,10): + rhazim(5,10) <= 3.69287825202232
 bdhi__rhazim(6,0): + rhazim(6,0) <= 3.69287825202232
 bdhi__rhazim(6,2): + rhazim(6,2) <= 3.69287825202232
 bdhi__rhazim(6,8): + rhazim(6,8) <= 3.69287825202232
 bdhi__rhazim(6,20): + rhazim(6,20) <= 3.69287825202232
 bdhi__rhazim(7,0): + rhazim(7,0) <= 3.69287825202232
 bdhi__rhazim(7,8): + rhazim(7,8) <= 3.69287825202232
 bdhi__rhazim(7,11): + rhazim(7,11) <= 3.69287825202232
 bdhi__rhazim(7,17): + rhazim(7,17) <= 3.69287825202232
 bdhi__rhazim(7,18): + rhazim(7,18) <= 3.69287825202232
 bdhi__rhazim(8,1): + rhazim(8,1) <= 3.69287825202232
 bdhi__rhazim(8,5): + rhazim(8,5) <= 3.69287825202232
 bdhi__rhazim(8,7): + rhazim(8,7) <= 3.69287825202232
 bdhi__rhazim(8,13): + rhazim(8,13) <= 3.69287825202232
 bdhi__rhazim(8,14): + rhazim(8,14) <= 3.69287825202232
 bdhi__rhazim(9,1): + rhazim(9,1) <= 3.69287825202232
 bdhi__rhazim(9,9): + rhazim(9,9) <= 3.69287825202232
 bdhi__rhazim(9,14): + rhazim(9,14) <= 3.69287825202232
 bdhi__rhazim(9,15): + rhazim(9,15) <= 3.69287825202232
 bdhi__rhazim(9,16): + rhazim(9,16) <= 3.69287825202232
 bdhi__rhazim(10,2): + rhazim(10,2) <= 3.69287825202232
 bdhi__rhazim(10,6): + rhazim(10,6) <= 3.69287825202232
 bdhi__rhazim(10,7): + rhazim(10,7) <= 3.69287825202232
 bdhi__rhazim(10,12): + rhazim(10,12) <= 3.69287825202232
 bdhi__rhazim(10,13): + rhazim(10,13) <= 3.69287825202232
 bdhi__rhazim(11,2): + rhazim(11,2) <= 3.69287825202232
 bdhi__rhazim(11,8): + rhazim(11,8) <= 3.69287825202232
 bdhi__rhazim(11,12): + rhazim(11,12) <= 3.69287825202232
 bdhi__rhazim(11,18): + rhazim(11,18) <= 3.69287825202232
 bdhi__rhazim(11,19): + rhazim(11,19) <= 3.69287825202232
 bdhi__rhazim(12,9): + rhazim(12,9) <= 3.69287825202232
 bdhi__rhazim(12,10): + rhazim(12,10) <= 3.69287825202232
 bdhi__rhazim(12,11): + rhazim(12,11) <= 3.69287825202232
 bdhi__rhazim(12,16): + rhazim(12,16) <= 3.69287825202232
 bdhi__rhazim(12,17): + rhazim(12,17) <= 3.69287825202232
 bdhi__rhazim(13,12): + rhazim(13,12) <= 3.69287825202232
 bdhi__rhazim(13,13): + rhazim(13,13) <= 3.69287825202232
 bdhi__rhazim(13,14): + rhazim(13,14) <= 3.69287825202232
 bdhi__rhazim(13,15): + rhazim(13,15) <= 3.69287825202232
 bdhi__rhazim(13,19): + rhazim(13,19) <= 3.69287825202232
 bdhi__rhazim(14,15): + rhazim(14,15) <= 3.69287825202232
 bdhi__rhazim(14,16): + rhazim(14,16) <= 3.69287825202232
 bdhi__rhazim(14,17): + rhazim(14,17) <= 3.69287825202232
 bdhi__rhazim(14,18): + rhazim(14,18) <= 3.69287825202232
 bdhi__rhazim(14,19): + rhazim(14,19) <= 3.69287825202232
 bdhi__rhazim2(0,5): + rhazim2(0,5) <= 3.69287825202232
 bdhi__rhazim2(8,5): + rhazim2(8,5) <= 3.69287825202232
 bdhi__rhazim2(1,5): + rhazim2(1,5) <= 3.69287825202232
 bdhi__rhazim2(2,6): + rhazim2(2,6) <= 3.69287825202232
 bdhi__rhazim2(1,6): + rhazim2(1,6) <= 3.69287825202232
 bdhi__rhazim2(10,6): + rhazim2(10,6) <= 3.69287825202232
 bdhi__rhazim2(1,7): + rhazim2(1,7) <= 3.69287825202232
 bdhi__rhazim2(8,7): + rhazim2(8,7) <= 3.69287825202232
 bdhi__rhazim2(10,7): + rhazim2(10,7) <= 3.69287825202232
 bdhi__rhazim2(6,8): + rhazim2(6,8) <= 3.69287825202232
 bdhi__rhazim2(11,8): + rhazim2(11,8) <= 3.69287825202232
 bdhi__rhazim2(7,8): + rhazim2(7,8) <= 3.69287825202232
 bdhi__rhazim2(5,9): + rhazim2(5,9) <= 3.69287825202232
 bdhi__rhazim2(12,9): + rhazim2(12,9) <= 3.69287825202232
 bdhi__rhazim2(9,9): + rhazim2(9,9) <= 3.69287825202232
 bdhi__rhazim2(5,10): + rhazim2(5,10) <= 3.69287825202232
 bdhi__rhazim2(4,10): + rhazim2(4,10) <= 3.69287825202232
 bdhi__rhazim2(12,10): + rhazim2(12,10) <= 3.69287825202232
 bdhi__rhazim2(4,11): + rhazim2(4,11) <= 3.69287825202232
 bdhi__rhazim2(7,11): + rhazim2(7,11) <= 3.69287825202232
 bdhi__rhazim2(12,11): + rhazim2(12,11) <= 3.69287825202232
 bdhi__rhazim2(10,12): + rhazim2(10,12) <= 3.69287825202232
 bdhi__rhazim2(13,12): + rhazim2(13,12) <= 3.69287825202232
 bdhi__rhazim2(11,12): + rhazim2(11,12) <= 3.69287825202232
 bdhi__rhazim2(10,13): + rhazim2(10,13) <= 3.69287825202232
 bdhi__rhazim2(8,13): + rhazim2(8,13) <= 3.69287825202232
 bdhi__rhazim2(13,13): + rhazim2(13,13) <= 3.69287825202232
 bdhi__rhazim2(8,14): + rhazim2(8,14) <= 3.69287825202232
 bdhi__rhazim2(9,14): + rhazim2(9,14) <= 3.69287825202232
 bdhi__rhazim2(13,14): + rhazim2(13,14) <= 3.69287825202232
 bdhi__rhazim2(9,15): + rhazim2(9,15) <= 3.69287825202232
 bdhi__rhazim2(14,15): + rhazim2(14,15) <= 3.69287825202232
 bdhi__rhazim2(13,15): + rhazim2(13,15) <= 3.69287825202232
 bdhi__rhazim2(9,16): + rhazim2(9,16) <= 3.69287825202232
 bdhi__rhazim2(12,16): + rhazim2(12,16) <= 3.69287825202232
 bdhi__rhazim2(14,16): + rhazim2(14,16) <= 3.69287825202232
 bdhi__rhazim2(12,17): + rhazim2(12,17) <= 3.69287825202232
 bdhi__rhazim2(7,17): + rhazim2(7,17) <= 3.69287825202232
 bdhi__rhazim2(14,17): + rhazim2(14,17) <= 3.69287825202232
 bdhi__rhazim2(7,18): + rhazim2(7,18) <= 3.69287825202232
 bdhi__rhazim2(11,18): + rhazim2(11,18) <= 3.69287825202232
 bdhi__rhazim2(14,18): + rhazim2(14,18) <= 3.69287825202232
 bdhi__rhazim2(13,19): + rhazim2(13,19) <= 3.69287825202232
 bdhi__rhazim2(14,19): + rhazim2(14,19) <= 3.69287825202232
 bdhi__rhazim2(11,19): + rhazim2(11,19) <= 3.69287825202232
 bdhi__rhazim2(3,20): + rhazim2(3,20) <= 3.69287825202232
 bdhi__rhazim2(2,20): + rhazim2(2,20) <= 3.69287825202232
 bdhi__rhazim2(6,20): + rhazim2(6,20) <= 3.69287825202232
 bdhi__rhazim3(0,5): + rhazim3(0,5) <= 3.69287825202232
 bdhi__rhazim3(8,5): + rhazim3(8,5) <= 3.69287825202232
 bdhi__rhazim3(1,5): + rhazim3(1,5) <= 3.69287825202232
 bdhi__rhazim3(2,6): + rhazim3(2,6) <= 3.69287825202232
 bdhi__rhazim3(1,6): + rhazim3(1,6) <= 3.69287825202232
 bdhi__rhazim3(10,6): + rhazim3(10,6) <= 3.69287825202232
 bdhi__rhazim3(1,7): + rhazim3(1,7) <= 3.69287825202232
 bdhi__rhazim3(8,7): + rhazim3(8,7) <= 3.69287825202232
 bdhi__rhazim3(10,7): + rhazim3(10,7) <= 3.69287825202232
 bdhi__rhazim3(6,8): + rhazim3(6,8) <= 3.69287825202232
 bdhi__rhazim3(11,8): + rhazim3(11,8) <= 3.69287825202232
 bdhi__rhazim3(7,8): + rhazim3(7,8) <= 3.69287825202232
 bdhi__rhazim3(5,9): + rhazim3(5,9) <= 3.69287825202232
 bdhi__rhazim3(12,9): + rhazim3(12,9) <= 3.69287825202232
 bdhi__rhazim3(9,9): + rhazim3(9,9) <= 3.69287825202232
 bdhi__rhazim3(5,10): + rhazim3(5,10) <= 3.69287825202232
 bdhi__rhazim3(4,10): + rhazim3(4,10) <= 3.69287825202232
 bdhi__rhazim3(12,10): + rhazim3(12,10) <= 3.69287825202232
 bdhi__rhazim3(4,11): + rhazim3(4,11) <= 3.69287825202232
 bdhi__rhazim3(7,11): + rhazim3(7,11) <= 3.69287825202232
 bdhi__rhazim3(12,11): + rhazim3(12,11) <= 3.69287825202232
 bdhi__rhazim3(10,12): + rhazim3(10,12) <= 3.69287825202232
 bdhi__rhazim3(13,12): + rhazim3(13,12) <= 3.69287825202232
 bdhi__rhazim3(11,12): + rhazim3(11,12) <= 3.69287825202232
 bdhi__rhazim3(10,13): + rhazim3(10,13) <= 3.69287825202232
 bdhi__rhazim3(8,13): + rhazim3(8,13) <= 3.69287825202232
 bdhi__rhazim3(13,13): + rhazim3(13,13) <= 3.69287825202232
 bdhi__rhazim3(8,14): + rhazim3(8,14) <= 3.69287825202232
 bdhi__rhazim3(9,14): + rhazim3(9,14) <= 3.69287825202232
 bdhi__rhazim3(13,14): + rhazim3(13,14) <= 3.69287825202232
 bdhi__rhazim3(9,15): + rhazim3(9,15) <= 3.69287825202232
 bdhi__rhazim3(14,15): + rhazim3(14,15) <= 3.69287825202232
 bdhi__rhazim3(13,15): + rhazim3(13,15) <= 3.69287825202232
 bdhi__rhazim3(9,16): + rhazim3(9,16) <= 3.69287825202232
 bdhi__rhazim3(12,16): + rhazim3(12,16) <= 3.69287825202232
 bdhi__rhazim3(14,16): + rhazim3(14,16) <= 3.69287825202232
 bdhi__rhazim3(12,17): + rhazim3(12,17) <= 3.69287825202232
 bdhi__rhazim3(7,17): + rhazim3(7,17) <= 3.69287825202232
 bdhi__rhazim3(14,17): + rhazim3(14,17) <= 3.69287825202232
 bdhi__rhazim3(7,18): + rhazim3(7,18) <= 3.69287825202232
 bdhi__rhazim3(11,18): + rhazim3(11,18) <= 3.69287825202232
 bdhi__rhazim3(14,18): + rhazim3(14,18) <= 3.69287825202232
 bdhi__rhazim3(13,19): + rhazim3(13,19) <= 3.69287825202232
 bdhi__rhazim3(14,19): + rhazim3(14,19) <= 3.69287825202232
 bdhi__rhazim3(11,19): + rhazim3(11,19) <= 3.69287825202232
 bdhi__rhazim3(3,20): + rhazim3(3,20) <= 3.69287825202232
 bdhi__rhazim3(2,20): + rhazim3(2,20) <= 3.69287825202232
 bdhi__rhazim3(6,20): + rhazim3(6,20) <= 3.69287825202232
 bdlo__yn(0): + yn(0) >= 2
 bdhi__yn(0): + yn(0) <= 2.52
 bdlo__yn(1): + yn(1) >= 2
 bdhi__yn(1): + yn(1) <= 2.52
 bdlo__yn(2): + yn(2) >= 2
 bdhi__yn(2): + yn(2) <= 2.52
 bdlo__yn(3): + yn(3) >= 2
 bdhi__yn(3): + yn(3) <= 2.52
 bdlo__yn(4): + yn(4) >= 2
 bdhi__yn(4): + yn(4) <= 2.52
 bdlo__yn(5): + yn(5) >= 2
 bdhi__yn(5): + yn(5) <= 2.52
 bdlo__yn(6): + yn(6) >= 2
 bdhi__yn(6): + yn(6) <= 2.52
 bdlo__yn(7): + yn(7) >= 2
 bdhi__yn(7): + yn(7) <= 2.52
 bdlo__yn(8): + yn(8) >= 2
 bdhi__yn(8): + yn(8) <= 2.52
 bdlo__yn(9): + yn(9) >= 2
 bdhi__yn(9): + yn(9) <= 2.52
 bdlo__yn(10): + yn(10) >= 2
 bdhi__yn(10): + yn(10) <= 2.52
 bdlo__yn(11): + yn(11) >= 2
 bdhi__yn(11): + yn(11) <= 2.52
 bdlo__yn(12): + yn(12) >= 2
 bdhi__yn(12): + yn(12) <= 2.52
 bdlo__yn(13): + yn(13) >= 2
 bdhi__yn(13): + yn(13) <= 2.52
 bdlo__yn(14): + yn(14) >= 2
 bdhi__yn(14): + yn(14) <= 2.52
 bdlo__ye(3,0): + ye(3,0) >= 2
 bdhi__ye(3,0): + ye(3,0) <= 3
 bdlo__ye(6,20): + ye(6,20) >= 2
 bdhi__ye(6,20): + ye(6,20) <= 3
 bdlo__ye(6,0): + ye(6,0) >= 2
 bdhi__ye(6,0): + ye(6,0) <= 3
 bdlo__ye(7,8): + ye(7,8) >= 2
 bdhi__ye(7,8): + ye(7,8) <= 3
 bdlo__ye(7,0): + ye(7,0) >= 2
 bdhi__ye(7,0): + ye(7,0) <= 3
 bdlo__ye(4,11): + ye(4,11) >= 2
 bdhi__ye(4,11): + ye(4,11) <= 3
 bdlo__ye(4,0): + ye(4,0) >= 2
 bdhi__ye(4,0): + ye(4,0) <= 3
 bdlo__ye(3,4): + ye(3,4) >= 2
 bdhi__ye(3,4): + ye(3,4) <= 3
 bdlo__ye(0,1): + ye(0,1) >= 2
 bdhi__ye(0,1): + ye(0,1) <= 3
 bdlo__ye(5,4): + ye(5,4) >= 2
 bdhi__ye(5,4): + ye(5,4) <= 3
 bdlo__ye(5,1): + ye(5,1) >= 2
 bdhi__ye(5,1): + ye(5,1) <= 3
 bdlo__ye(9,9): + ye(9,9) >= 2
 bdhi__ye(9,9): + ye(9,9) <= 3
 bdlo__ye(9,1): + ye(9,1) >= 2
 bdhi__ye(9,1): + ye(9,1) <= 3
 bdlo__ye(8,14): + ye(8,14) >= 2
 bdhi__ye(8,14): + ye(8,14) <= 3
 bdlo__ye(8,1): + ye(8,1) >= 2
 bdhi__ye(8,1): + ye(8,1) <= 3
 bdlo__ye(0,5): + ye(0,5) >= 2
 bdhi__ye(0,5): + ye(0,5) <= 3
 bdlo__ye(2,2): + ye(2,2) >= 2
 bdhi__ye(2,2): + ye(2,2) <= 3
 bdlo__ye(10,6): + ye(10,6) >= 2
 bdhi__ye(10,6): + ye(10,6) <= 3
 bdlo__ye(10,2): + ye(10,2) >= 2
 bdhi__ye(10,2): + ye(10,2) <= 3
 bdlo__ye(11,12): + ye(11,12) >= 2
 bdhi__ye(11,12): + ye(11,12) <= 3
 bdlo__ye(11,2): + ye(11,2) >= 2
 bdhi__ye(11,2): + ye(11,2) <= 3
 bdlo__ye(6,8): + ye(6,8) >= 2
 bdhi__ye(6,8): + ye(6,8) <= 3
 bdlo__ye(6,2): + ye(6,2) >= 2
 bdhi__ye(6,2): + ye(6,2) <= 3
 bdlo__ye(2,20): + ye(2,20) >= 2
 bdhi__ye(2,20): + ye(2,20) <= 3
 bdlo__ye(1,3): + ye(1,3) >= 2
 bdhi__ye(1,3): + ye(1,3) <= 3
 bdlo__ye(2,6): + ye(2,6) >= 2
 bdhi__ye(2,6): + ye(2,6) <= 3
 bdlo__ye(2,3): + ye(2,3) >= 2
 bdhi__ye(2,3): + ye(2,3) <= 3
 bdlo__ye(3,20): + ye(3,20) >= 2
 bdhi__ye(3,20): + ye(3,20) <= 3
 bdlo__ye(3,3): + ye(3,3) >= 2
 bdhi__ye(3,3): + ye(3,3) <= 3
 bdlo__ye(0,4): + ye(0,4) >= 2
 bdhi__ye(0,4): + ye(0,4) <= 3
 bdlo__ye(0,3): + ye(0,3) >= 2
 bdhi__ye(0,3): + ye(0,3) <= 3
 bdlo__ye(1,5): + ye(1,5) >= 2
 bdhi__ye(1,5): + ye(1,5) <= 3
 bdlo__ye(4,4): + ye(4,4) >= 2
 bdhi__ye(4,4): + ye(4,4) <= 3
 bdlo__ye(5,10): + ye(5,10) >= 2
 bdhi__ye(5,10): + ye(5,10) <= 3
 bdlo__ye(8,5): + ye(8,5) >= 2
 bdhi__ye(8,5): + ye(8,5) <= 3
 bdlo__ye(1,7): + ye(1,7) >= 2
 bdhi__ye(1,7): + ye(1,7) <= 3
 bdlo__ye(1,6): + ye(1,6) >= 2
 bdhi__ye(1,6): + ye(1,6) <= 3
 bdlo__ye(10,7): + ye(10,7) >= 2
 bdhi__ye(10,7): + ye(10,7) <= 3
 bdlo__ye(8,7): + ye(8,7) >= 2
 bdhi__ye(8,7): + ye(8,7) <= 3
 bdlo__ye(10,13): + ye(10,13) >= 2
 bdhi__ye(10,13): + ye(10,13) <= 3
 bdlo__ye(11,8): + ye(11,8) >= 2
 bdhi__ye(11,8): + ye(11,8) <= 3
 bdlo__ye(7,18): + ye(7,18) >= 2
 bdhi__ye(7,18): + ye(7,18) <= 3
 bdlo__ye(5,9): + ye(5,9) >= 2
 bdhi__ye(5,9): + ye(5,9) <= 3
 bdlo__ye(12,10): + ye(12,10) >= 2
 bdhi__ye(12,10): + ye(12,10) <= 3
 bdlo__ye(12,9): + ye(12,9) >= 2
 bdhi__ye(12,9): + ye(12,9) <= 3
 bdlo__ye(9,16): + ye(9,16) >= 2
 bdhi__ye(9,16): + ye(9,16) <= 3
 bdlo__ye(4,10): + ye(4,10) >= 2
 bdhi__ye(4,10): + ye(4,10) <= 3
 bdlo__ye(12,11): + ye(12,11) >= 2
 bdhi__ye(12,11): + ye(12,11) <= 3
 bdlo__ye(7,11): + ye(7,11) >= 2
 bdhi__ye(7,11): + ye(7,11) <= 3
 bdlo__ye(12,17): + ye(12,17) >= 2
 bdhi__ye(12,17): + ye(12,17) <= 3
 bdlo__ye(10,12): + ye(10,12) >= 2
 bdhi__ye(10,12): + ye(10,12) <= 3
 bdlo__ye(13,13): + ye(13,13) >= 2
 bdhi__ye(13,13): + ye(13,13) <= 3
 bdlo__ye(13,12): + ye(13,12) >= 2
 bdhi__ye(13,12): + ye(13,12) <= 3
 bdlo__ye(11,19): + ye(11,19) >= 2
 bdhi__ye(11,19): + ye(11,19) <= 3
 bdlo__ye(8,13): + ye(8,13) >= 2
 bdhi__ye(8,13): + ye(8,13) <= 3
 bdlo__ye(13,14): + ye(13,14) >= 2
 bdhi__ye(13,14): + ye(13,14) <= 3
 bdlo__ye(9,14): + ye(9,14) >= 2
 bdhi__ye(9,14): + ye(9,14) <= 3
 bdlo__ye(13,15): + ye(13,15) >= 2
 bdhi__ye(13,15): + ye(13,15) <= 3
 bdlo__ye(9,15): + ye(9,15) >= 2
 bdhi__ye(9,15): + ye(9,15) <= 3
 bdlo__ye(14,16): + ye(14,16) >= 2
 bdhi__ye(14,16): + ye(14,16) <= 3
 bdlo__ye(14,15): + ye(14,15) >= 2
 bdhi__ye(14,15): + ye(14,15) <= 3
 bdlo__ye(13,19): + ye(13,19) >= 2
 bdhi__ye(13,19): + ye(13,19) <= 3
 bdlo__ye(12,16): + ye(12,16) >= 2
 bdhi__ye(12,16): + ye(12,16) <= 3
 bdlo__ye(14,17): + ye(14,17) >= 2
 bdhi__ye(14,17): + ye(14,17) <= 3
 bdlo__ye(7,17): + ye(7,17) >= 2
 bdhi__ye(7,17): + ye(7,17) <= 3
 bdlo__ye(14,18): + ye(14,18) >= 2
 bdhi__ye(14,18): + ye(14,18) <= 3
 bdlo__ye(11,18): + ye(11,18) >= 2
 bdhi__ye(11,18): + ye(11,18) <= 3
 bdlo__ye(14,19): + ye(14,19) >= 2
 bdhi__ye(14,19): + ye(14,19) <= 3
 bdlo__rho(0): + rho(0) >= 1
 bdhi__rho(0): + rho(0) <= 1.17547965609182
 bdlo__rho(1): + rho(1) >= 1
 bdhi__rho(1): + rho(1) <= 1.17547965609182
 bdlo__rho(2): + rho(2) >= 1
 bdhi__rho(2): + rho(2) <= 1.17547965609182
 bdlo__rho(3): + rho(3) >= 1
 bdhi__rho(3): + rho(3) <= 1.17547965609182
 bdlo__rho(4): + rho(4) >= 1
 bdhi__rho(4): + rho(4) <= 1.17547965609182
 bdlo__rho(5): + rho(5) >= 1
 bdhi__rho(5): + rho(5) <= 1.17547965609182
 bdlo__rho(6): + rho(6) >= 1
 bdhi__rho(6): + rho(6) <= 1.17547965609182
 bdlo__rho(7): + rho(7) >= 1
 bdhi__rho(7): + rho(7) <= 1.17547965609182
 bdlo__rho(8): + rho(8) >= 1
 bdhi__rho(8): + rho(8) <= 1.17547965609182
 bdlo__rho(9): + rho(9) >= 1
 bdhi__rho(9): + rho(9) <= 1.17547965609182
 bdlo__rho(10): + rho(10) >= 1
 bdhi__rho(10): + rho(10) <= 1.17547965609182
 bdlo__rho(11): + rho(11) >= 1
 bdhi__rho(11): + rho(11) <= 1.17547965609182
 bdlo__rho(12): + rho(12) >= 1
 bdhi__rho(12): + rho(12) <= 1.17547965609182
 bdlo__rho(13): + rho(13) >= 1
 bdhi__rho(13): + rho(13) <= 1.17547965609182
 bdlo__rho(14): + rho(14) >= 1
 bdhi__rho(14): + rho(14) <= 1.17547965609182
 bdhi__sol(0): + sol(0) <= 12.5663706143592
 bdhi__sol(1): + sol(1) <= 12.5663706143592
 bdhi__sol(2): + sol(2) <= 12.5663706143592
 bdhi__sol(3): + sol(3) <= 12.5663706143592
 bdhi__sol(4): + sol(4) <= 12.5663706143592
 bdhi__sol(5): + sol(5) <= 12.5663706143592
 bdhi__sol(6): + sol(6) <= 12.5663706143592
 bdhi__sol(7): + sol(7) <= 12.5663706143592
 bdhi__sol(8): + sol(8) <= 12.5663706143592
 bdhi__sol(9): + sol(9) <= 12.5663706143592
 bdhi__sol(10): + sol(10) <= 12.5663706143592
 bdhi__sol(11): + sol(11) <= 12.5663706143592
 bdhi__sol(12): + sol(12) <= 12.5663706143592
 bdhi__sol(13): + sol(13) <= 12.5663706143592
 bdhi__sol(14): + sol(14) <= 12.5663706143592
 bdhi__sol(15): + sol(15) <= 12.5663706143592
 bdhi__sol(16): + sol(16) <= 12.5663706143592
 bdhi__sol(17): + sol(17) <= 12.5663706143592
 bdhi__sol(18): + sol(18) <= 12.5663706143592
 bdhi__sol(19): + sol(19) <= 12.5663706143592
 bdhi__sol(20): + sol(20) <= 12.5663706143592
 bdhi__tau(0): + tau(0) <= 1.541
 bdhi__tau(1): + tau(1) <= 1.541
 bdhi__tau(2): + tau(2) <= 1.541
 bdhi__tau(3): + tau(3) <= 1.541
 bdhi__tau(4): + tau(4) <= 1.541
 bdhi__tau(5): + tau(5) <= 1.541
 bdhi__tau(6): + tau(6) <= 1.541
 bdhi__tau(7): + tau(7) <= 1.541
 bdhi__tau(8): + tau(8) <= 1.541
 bdhi__tau(9): + tau(9) <= 1.541
 bdhi__tau(10): + tau(10) <= 1.541
 bdhi__tau(11): + tau(11) <= 1.541
 bdhi__tau(12): + tau(12) <= 1.541
 bdhi__tau(13): + tau(13) <= 1.541
 bdhi__tau(14): + tau(14) <= 1.541
 bdhi__tau(15): + tau(15) <= 1.541
 bdhi__tau(16): + tau(16) <= 1.541
 bdhi__tau(17): + tau(17) <= 1.541
 bdhi__tau(18): + tau(18) <= 1.541
 bdhi__tau(19): + tau(19) <= 1.541
 bdhi__tau(20): + tau(20) <= 1.541
 bdlo__y1(3,0): + y1(3,0) >= 2
 bdhi__y1(3,0): + y1(3,0) <= 2.52
 bdlo__y1(6,0): + y1(6,0) >= 2
 bdhi__y1(6,0): + y1(6,0) <= 2.52
 bdlo__y1(7,0): + y1(7,0) >= 2
 bdhi__y1(7,0): + y1(7,0) <= 2.52
 bdlo__y1(4,0): + y1(4,0) >= 2
 bdhi__y1(4,0): + y1(4,0) <= 2.52
 bdlo__y1(0,1): + y1(0,1) >= 2
 bdhi__y1(0,1): + y1(0,1) <= 2.52
 bdlo__y1(5,1): + y1(5,1) >= 2
 bdhi__y1(5,1): + y1(5,1) <= 2.52
 bdlo__y1(9,1): + y1(9,1) >= 2
 bdhi__y1(9,1): + y1(9,1) <= 2.52
 bdlo__y1(8,1): + y1(8,1) >= 2
 bdhi__y1(8,1): + y1(8,1) <= 2.52
 bdlo__y1(2,2): + y1(2,2) >= 2
 bdhi__y1(2,2): + y1(2,2) <= 2.52
 bdlo__y1(10,2): + y1(10,2) >= 2
 bdhi__y1(10,2): + y1(10,2) <= 2.52
 bdlo__y1(11,2): + y1(11,2) >= 2
 bdhi__y1(11,2): + y1(11,2) <= 2.52
 bdlo__y1(6,2): + y1(6,2) >= 2
 bdhi__y1(6,2): + y1(6,2) <= 2.52
 bdlo__y1(1,3): + y1(1,3) >= 2
 bdhi__y1(1,3): + y1(1,3) <= 2.52
 bdlo__y1(2,3): + y1(2,3) >= 2
 bdhi__y1(2,3): + y1(2,3) <= 2.52
 bdlo__y1(3,3): + y1(3,3) >= 2
 bdhi__y1(3,3): + y1(3,3) <= 2.52
 bdlo__y1(0,3): + y1(0,3) >= 2
 bdhi__y1(0,3): + y1(0,3) <= 2.52
 bdlo__y1(3,4): + y1(3,4) >= 2
 bdhi__y1(3,4): + y1(3,4) <= 2.52
 bdlo__y1(4,4): + y1(4,4) >= 2
 bdhi__y1(4,4): + y1(4,4) <= 2.52
 bdlo__y1(5,4): + y1(5,4) >= 2
 bdhi__y1(5,4): + y1(5,4) <= 2.52
 bdlo__y1(0,4): + y1(0,4) >= 2
 bdhi__y1(0,4): + y1(0,4) <= 2.52
 bdlo__y1(0,5): + y1(0,5) >= 2
 bdhi__y1(0,5): + y1(0,5) <= 2.52
 bdlo__y1(8,5): + y1(8,5) >= 2
 bdhi__y1(8,5): + y1(8,5) <= 2.52
 bdlo__y1(1,5): + y1(1,5) >= 2
 bdhi__y1(1,5): + y1(1,5) <= 2.52
 bdlo__y1(2,6): + y1(2,6) >= 2
 bdhi__y1(2,6): + y1(2,6) <= 2.52
 bdlo__y1(1,6): + y1(1,6) >= 2
 bdhi__y1(1,6): + y1(1,6) <= 2.52
 bdlo__y1(10,6): + y1(10,6) >= 2
 bdhi__y1(10,6): + y1(10,6) <= 2.52
 bdlo__y1(1,7): + y1(1,7) >= 2
 bdhi__y1(1,7): + y1(1,7) <= 2.52
 bdlo__y1(8,7): + y1(8,7) >= 2
 bdhi__y1(8,7): + y1(8,7) <= 2.52
 bdlo__y1(10,7): + y1(10,7) >= 2
 bdhi__y1(10,7): + y1(10,7) <= 2.52
 bdlo__y1(6,8): + y1(6,8) >= 2
 bdhi__y1(6,8): + y1(6,8) <= 2.52
 bdlo__y1(11,8): + y1(11,8) >= 2
 bdhi__y1(11,8): + y1(11,8) <= 2.52
 bdlo__y1(7,8): + y1(7,8) >= 2
 bdhi__y1(7,8): + y1(7,8) <= 2.52
 bdlo__y1(5,9): + y1(5,9) >= 2
 bdhi__y1(5,9): + y1(5,9) <= 2.52
 bdlo__y1(12,9): + y1(12,9) >= 2
 bdhi__y1(12,9): + y1(12,9) <= 2.52
 bdlo__y1(9,9): + y1(9,9) >= 2
 bdhi__y1(9,9): + y1(9,9) <= 2.52
 bdlo__y1(5,10): + y1(5,10) >= 2
 bdhi__y1(5,10): + y1(5,10) <= 2.52
 bdlo__y1(4,10): + y1(4,10) >= 2
 bdhi__y1(4,10): + y1(4,10) <= 2.52
 bdlo__y1(12,10): + y1(12,10) >= 2
 bdhi__y1(12,10): + y1(12,10) <= 2.52
 bdlo__y1(4,11): + y1(4,11) >= 2
 bdhi__y1(4,11): + y1(4,11) <= 2.52
 bdlo__y1(7,11): + y1(7,11) >= 2
 bdhi__y1(7,11): + y1(7,11) <= 2.52
 bdlo__y1(12,11): + y1(12,11) >= 2
 bdhi__y1(12,11): + y1(12,11) <= 2.52
 bdlo__y1(10,12): + y1(10,12) >= 2
 bdhi__y1(10,12): + y1(10,12) <= 2.52
 bdlo__y1(13,12): + y1(13,12) >= 2
 bdhi__y1(13,12): + y1(13,12) <= 2.52
 bdlo__y1(11,12): + y1(11,12) >= 2
 bdhi__y1(11,12): + y1(11,12) <= 2.52
 bdlo__y1(10,13): + y1(10,13) >= 2
 bdhi__y1(10,13): + y1(10,13) <= 2.52
 bdlo__y1(8,13): + y1(8,13) >= 2
 bdhi__y1(8,13): + y1(8,13) <= 2.52
 bdlo__y1(13,13): + y1(13,13) >= 2
 bdhi__y1(13,13): + y1(13,13) <= 2.52
 bdlo__y1(8,14): + y1(8,14) >= 2
 bdhi__y1(8,14): + y1(8,14) <= 2.52
 bdlo__y1(9,14): + y1(9,14) >= 2
 bdhi__y1(9,14): + y1(9,14) <= 2.52
 bdlo__y1(13,14): + y1(13,14) >= 2
 bdhi__y1(13,14): + y1(13,14) <= 2.52
 bdlo__y1(9,15): + y1(9,15) >= 2
 bdhi__y1(9,15): + y1(9,15) <= 2.52
 bdlo__y1(14,15): + y1(14,15) >= 2
 bdhi__y1(14,15): + y1(14,15) <= 2.52
 bdlo__y1(13,15): + y1(13,15) >= 2
 bdhi__y1(13,15): + y1(13,15) <= 2.52
 bdlo__y1(9,16): + y1(9,16) >= 2
 bdhi__y1(9,16): + y1(9,16) <= 2.52
 bdlo__y1(12,16): + y1(12,16) >= 2
 bdhi__y1(12,16): + y1(12,16) <= 2.52
 bdlo__y1(14,16): + y1(14,16) >= 2
 bdhi__y1(14,16): + y1(14,16) <= 2.52
 bdlo__y1(12,17): + y1(12,17) >= 2
 bdhi__y1(12,17): + y1(12,17) <= 2.52
 bdlo__y1(7,17): + y1(7,17) >= 2
 bdhi__y1(7,17): + y1(7,17) <= 2.52
 bdlo__y1(14,17): + y1(14,17) >= 2
 bdhi__y1(14,17): + y1(14,17) <= 2.52
 bdlo__y1(7,18): + y1(7,18) >= 2
 bdhi__y1(7,18): + y1(7,18) <= 2.52
 bdlo__y1(11,18): + y1(11,18) >= 2
 bdhi__y1(11,18): + y1(11,18) <= 2.52
 bdlo__y1(14,18): + y1(14,18) >= 2
 bdhi__y1(14,18): + y1(14,18) <= 2.52
 bdlo__y1(13,19): + y1(13,19) >= 2
 bdhi__y1(13,19): + y1(13,19) <= 2.52
 bdlo__y1(14,19): + y1(14,19) >= 2
 bdhi__y1(14,19): + y1(14,19) <= 2.52
 bdlo__y1(11,19): + y1(11,19) >= 2
 bdhi__y1(11,19): + y1(11,19) <= 2.52
 bdlo__y1(3,20): + y1(3,20) >= 2
 bdhi__y1(3,20): + y1(3,20) <= 2.52
 bdlo__y1(2,20): + y1(2,20) >= 2
 bdhi__y1(2,20): + y1(2,20) <= 2.52
 bdlo__y1(6,20): + y1(6,20) >= 2
 bdhi__y1(6,20): + y1(6,20) <= 2.52
 bdlo__y2(3,0): + y2(3,0) >= 2
 bdhi__y2(3,0): + y2(3,0) <= 2.52
 bdlo__y2(6,0): + y2(6,0) >= 2
 bdhi__y2(6,0): + y2(6,0) <= 2.52
 bdlo__y2(7,0): + y2(7,0) >= 2
 bdhi__y2(7,0): + y2(7,0) <= 2.52
 bdlo__y2(4,0): + y2(4,0) >= 2
 bdhi__y2(4,0): + y2(4,0) <= 2.52
 bdlo__y2(0,1): + y2(0,1) >= 2
 bdhi__y2(0,1): + y2(0,1) <= 2.52
 bdlo__y2(5,1): + y2(5,1) >= 2
 bdhi__y2(5,1): + y2(5,1) <= 2.52
 bdlo__y2(9,1): + y2(9,1) >= 2
 bdhi__y2(9,1): + y2(9,1) <= 2.52
 bdlo__y2(8,1): + y2(8,1) >= 2
 bdhi__y2(8,1): + y2(8,1) <= 2.52
 bdlo__y2(2,2): + y2(2,2) >= 2
 bdhi__y2(2,2): + y2(2,2) <= 2.52
 bdlo__y2(10,2): + y2(10,2) >= 2
 bdhi__y2(10,2): + y2(10,2) <= 2.52
 bdlo__y2(11,2): + y2(11,2) >= 2
 bdhi__y2(11,2): + y2(11,2) <= 2.52
 bdlo__y2(6,2): + y2(6,2) >= 2
 bdhi__y2(6,2): + y2(6,2) <= 2.52
 bdlo__y2(1,3): + y2(1,3) >= 2
 bdhi__y2(1,3): + y2(1,3) <= 2.52
 bdlo__y2(2,3): + y2(2,3) >= 2
 bdhi__y2(2,3): + y2(2,3) <= 2.52
 bdlo__y2(3,3): + y2(3,3) >= 2
 bdhi__y2(3,3): + y2(3,3) <= 2.52
 bdlo__y2(0,3): + y2(0,3) >= 2
 bdhi__y2(0,3): + y2(0,3) <= 2.52
 bdlo__y2(3,4): + y2(3,4) >= 2
 bdhi__y2(3,4): + y2(3,4) <= 2.52
 bdlo__y2(4,4): + y2(4,4) >= 2
 bdhi__y2(4,4): + y2(4,4) <= 2.52
 bdlo__y2(5,4): + y2(5,4) >= 2
 bdhi__y2(5,4): + y2(5,4) <= 2.52
 bdlo__y2(0,4): + y2(0,4) >= 2
 bdhi__y2(0,4): + y2(0,4) <= 2.52
 bdlo__y2(0,5): + y2(0,5) >= 2
 bdhi__y2(0,5): + y2(0,5) <= 2.52
 bdlo__y2(8,5): + y2(8,5) >= 2
 bdhi__y2(8,5): + y2(8,5) <= 2.52
 bdlo__y2(1,5): + y2(1,5) >= 2
 bdhi__y2(1,5): + y2(1,5) <= 2.52
 bdlo__y2(2,6): + y2(2,6) >= 2
 bdhi__y2(2,6): + y2(2,6) <= 2.52
 bdlo__y2(1,6): + y2(1,6) >= 2
 bdhi__y2(1,6): + y2(1,6) <= 2.52
 bdlo__y2(10,6): + y2(10,6) >= 2
 bdhi__y2(10,6): + y2(10,6) <= 2.52
 bdlo__y2(1,7): + y2(1,7) >= 2
 bdhi__y2(1,7): + y2(1,7) <= 2.52
 bdlo__y2(8,7): + y2(8,7) >= 2
 bdhi__y2(8,7): + y2(8,7) <= 2.52
 bdlo__y2(10,7): + y2(10,7) >= 2
 bdhi__y2(10,7): + y2(10,7) <= 2.52
 bdlo__y2(6,8): + y2(6,8) >= 2
 bdhi__y2(6,8): + y2(6,8) <= 2.52
 bdlo__y2(11,8): + y2(11,8) >= 2
 bdhi__y2(11,8): + y2(11,8) <= 2.52
 bdlo__y2(7,8): + y2(7,8) >= 2
 bdhi__y2(7,8): + y2(7,8) <= 2.52
 bdlo__y2(5,9): + y2(5,9) >= 2
 bdhi__y2(5,9): + y2(5,9) <= 2.52
 bdlo__y2(12,9): + y2(12,9) >= 2
 bdhi__y2(12,9): + y2(12,9) <= 2.52
 bdlo__y2(9,9): + y2(9,9) >= 2
 bdhi__y2(9,9): + y2(9,9) <= 2.52
 bdlo__y2(5,10): + y2(5,10) >= 2
 bdhi__y2(5,10): + y2(5,10) <= 2.52
 bdlo__y2(4,10): + y2(4,10) >= 2
 bdhi__y2(4,10): + y2(4,10) <= 2.52
 bdlo__y2(12,10): + y2(12,10) >= 2
 bdhi__y2(12,10): + y2(12,10) <= 2.52
 bdlo__y2(4,11): + y2(4,11) >= 2
 bdhi__y2(4,11): + y2(4,11) <= 2.52
 bdlo__y2(7,11): + y2(7,11) >= 2
 bdhi__y2(7,11): + y2(7,11) <= 2.52
 bdlo__y2(12,11): + y2(12,11) >= 2
 bdhi__y2(12,11): + y2(12,11) <= 2.52
 bdlo__y2(10,12): + y2(10,12) >= 2
 bdhi__y2(10,12): + y2(10,12) <= 2.52
 bdlo__y2(13,12): + y2(13,12) >= 2
 bdhi__y2(13,12): + y2(13,12) <= 2.52
 bdlo__y2(11,12): + y2(11,12) >= 2
 bdhi__y2(11,12): + y2(11,12) <= 2.52
 bdlo__y2(10,13): + y2(10,13) >= 2
 bdhi__y2(10,13): + y2(10,13) <= 2.52
 bdlo__y2(8,13): + y2(8,13) >= 2
 bdhi__y2(8,13): + y2(8,13) <= 2.52
 bdlo__y2(13,13): + y2(13,13) >= 2
 bdhi__y2(13,13): + y2(13,13) <= 2.52
 bdlo__y2(8,14): + y2(8,14) >= 2
 bdhi__y2(8,14): + y2(8,14) <= 2.52
 bdlo__y2(9,14): + y2(9,14) >= 2
 bdhi__y2(9,14): + y2(9,14) <= 2.52
 bdlo__y2(13,14): + y2(13,14) >= 2
 bdhi__y2(13,14): + y2(13,14) <= 2.52
 bdlo__y2(9,15): + y2(9,15) >= 2
 bdhi__y2(9,15): + y2(9,15) <= 2.52
 bdlo__y2(14,15): + y2(14,15) >= 2
 bdhi__y2(14,15): + y2(14,15) <= 2.52
 bdlo__y2(13,15): + y2(13,15) >= 2
 bdhi__y2(13,15): + y2(13,15) <= 2.52
 bdlo__y2(9,16): + y2(9,16) >= 2
 bdhi__y2(9,16): + y2(9,16) <= 2.52
 bdlo__y2(12,16): + y2(12,16) >= 2
 bdhi__y2(12,16): + y2(12,16) <= 2.52
 bdlo__y2(14,16): + y2(14,16) >= 2
 bdhi__y2(14,16): + y2(14,16) <= 2.52
 bdlo__y2(12,17): + y2(12,17) >= 2
 bdhi__y2(12,17): + y2(12,17) <= 2.52
 bdlo__y2(7,17): + y2(7,17) >= 2
 bdhi__y2(7,17): + y2(7,17) <= 2.52
 bdlo__y2(14,17): + y2(14,17) >= 2
 bdhi__y2(14,17): + y2(14,17) <= 2.52
 bdlo__y2(7,18): + y2(7,18) >= 2
 bdhi__y2(7,18): + y2(7,18) <= 2.52
 bdlo__y2(11,18): + y2(11,18) >= 2
 bdhi__y2(11,18): + y2(11,18) <= 2.52
 bdlo__y2(14,18): + y2(14,18) >= 2
 bdhi__y2(14,18): + y2(14,18) <= 2.52
 bdlo__y2(13,19): + y2(13,19) >= 2
 bdhi__y2(13,19): + y2(13,19) <= 2.52
 bdlo__y2(14,19): + y2(14,19) >= 2
 bdhi__y2(14,19): + y2(14,19) <= 2.52
 bdlo__y2(11,19): + y2(11,19) >= 2
 bdhi__y2(11,19): + y2(11,19) <= 2.52
 bdlo__y2(3,20): + y2(3,20) >= 2
 bdhi__y2(3,20): + y2(3,20) <= 2.52
 bdlo__y2(2,20): + y2(2,20) >= 2
 bdhi__y2(2,20): + y2(2,20) <= 2.52
 bdlo__y2(6,20): + y2(6,20) >= 2
 bdhi__y2(6,20): + y2(6,20) <= 2.52
 bdlo__y3(3,0): + y3(3,0) >= 2
 bdhi__y3(3,0): + y3(3,0) <= 2.52
 bdlo__y3(6,0): + y3(6,0) >= 2
 bdhi__y3(6,0): + y3(6,0) <= 2.52
 bdlo__y3(7,0): + y3(7,0) >= 2
 bdhi__y3(7,0): + y3(7,0) <= 2.52
 bdlo__y3(4,0): + y3(4,0) >= 2
 bdhi__y3(4,0): + y3(4,0) <= 2.52
 bdlo__y3(0,1): + y3(0,1) >= 2
 bdhi__y3(0,1): + y3(0,1) <= 2.52
 bdlo__y3(5,1): + y3(5,1) >= 2
 bdhi__y3(5,1): + y3(5,1) <= 2.52
 bdlo__y3(9,1): + y3(9,1) >= 2
 bdhi__y3(9,1): + y3(9,1) <= 2.52
 bdlo__y3(8,1): + y3(8,1) >= 2
 bdhi__y3(8,1): + y3(8,1) <= 2.52
 bdlo__y3(2,2): + y3(2,2) >= 2
 bdhi__y3(2,2): + y3(2,2) <= 2.52
 bdlo__y3(10,2): + y3(10,2) >= 2
 bdhi__y3(10,2): + y3(10,2) <= 2.52
 bdlo__y3(11,2): + y3(11,2) >= 2
 bdhi__y3(11,2): + y3(11,2) <= 2.52
 bdlo__y3(6,2): + y3(6,2) >= 2
 bdhi__y3(6,2): + y3(6,2) <= 2.52
 bdlo__y3(1,3): + y3(1,3) >= 2
 bdhi__y3(1,3): + y3(1,3) <= 2.52
 bdlo__y3(2,3): + y3(2,3) >= 2
 bdhi__y3(2,3): + y3(2,3) <= 2.52
 bdlo__y3(3,3): + y3(3,3) >= 2
 bdhi__y3(3,3): + y3(3,3) <= 2.52
 bdlo__y3(0,3): + y3(0,3) >= 2
 bdhi__y3(0,3): + y3(0,3) <= 2.52
 bdlo__y3(3,4): + y3(3,4) >= 2
 bdhi__y3(3,4): + y3(3,4) <= 2.52
 bdlo__y3(4,4): + y3(4,4) >= 2
 bdhi__y3(4,4): + y3(4,4) <= 2.52
 bdlo__y3(5,4): + y3(5,4) >= 2
 bdhi__y3(5,4): + y3(5,4) <= 2.52
 bdlo__y3(0,4): + y3(0,4) >= 2
 bdhi__y3(0,4): + y3(0,4) <= 2.52
 bdlo__y3(0,5): + y3(0,5) >= 2
 bdhi__y3(0,5): + y3(0,5) <= 2.52
 bdlo__y3(8,5): + y3(8,5) >= 2
 bdhi__y3(8,5): + y3(8,5) <= 2.52
 bdlo__y3(1,5): + y3(1,5) >= 2
 bdhi__y3(1,5): + y3(1,5) <= 2.52
 bdlo__y3(2,6): + y3(2,6) >= 2
 bdhi__y3(2,6): + y3(2,6) <= 2.52
 bdlo__y3(1,6): + y3(1,6) >= 2
 bdhi__y3(1,6): + y3(1,6) <= 2.52
 bdlo__y3(10,6): + y3(10,6) >= 2
 bdhi__y3(10,6): + y3(10,6) <= 2.52
 bdlo__y3(1,7): + y3(1,7) >= 2
 bdhi__y3(1,7): + y3(1,7) <= 2.52
 bdlo__y3(8,7): + y3(8,7) >= 2
 bdhi__y3(8,7): + y3(8,7) <= 2.52
 bdlo__y3(10,7): + y3(10,7) >= 2
 bdhi__y3(10,7): + y3(10,7) <= 2.52
 bdlo__y3(6,8): + y3(6,8) >= 2
 bdhi__y3(6,8): + y3(6,8) <= 2.52
 bdlo__y3(11,8): + y3(11,8) >= 2
 bdhi__y3(11,8): + y3(11,8) <= 2.52
 bdlo__y3(7,8): + y3(7,8) >= 2
 bdhi__y3(7,8): + y3(7,8) <= 2.52
 bdlo__y3(5,9): + y3(5,9) >= 2
 bdhi__y3(5,9): + y3(5,9) <= 2.52
 bdlo__y3(12,9): + y3(12,9) >= 2
 bdhi__y3(12,9): + y3(12,9) <= 2.52
 bdlo__y3(9,9): + y3(9,9) >= 2
 bdhi__y3(9,9): + y3(9,9) <= 2.52
 bdlo__y3(5,10): + y3(5,10) >= 2
 bdhi__y3(5,10): + y3(5,10) <= 2.52
 bdlo__y3(4,10): + y3(4,10) >= 2
 bdhi__y3(4,10): + y3(4,10) <= 2.52
 bdlo__y3(12,10): + y3(12,10) >= 2
 bdhi__y3(12,10): + y3(12,10) <= 2.52
 bdlo__y3(4,11): + y3(4,11) >= 2
 bdhi__y3(4,11): + y3(4,11) <= 2.52
 bdlo__y3(7,11): + y3(7,11) >= 2
 bdhi__y3(7,11): + y3(7,11) <= 2.52
 bdlo__y3(12,11): + y3(12,11) >= 2
 bdhi__y3(12,11): + y3(12,11) <= 2.52
 bdlo__y3(10,12): + y3(10,12) >= 2
 bdhi__y3(10,12): + y3(10,12) <= 2.52
 bdlo__y3(13,12): + y3(13,12) >= 2
 bdhi__y3(13,12): + y3(13,12) <= 2.52
 bdlo__y3(11,12): + y3(11,12) >= 2
 bdhi__y3(11,12): + y3(11,12) <= 2.52
 bdlo__y3(10,13): + y3(10,13) >= 2
 bdhi__y3(10,13): + y3(10,13) <= 2.52
 bdlo__y3(8,13): + y3(8,13) >= 2
 bdhi__y3(8,13): + y3(8,13) <= 2.52
 bdlo__y3(13,13): + y3(13,13) >= 2
 bdhi__y3(13,13): + y3(13,13) <= 2.52
 bdlo__y3(8,14): + y3(8,14) >= 2
 bdhi__y3(8,14): + y3(8,14) <= 2.52
 bdlo__y3(9,14): + y3(9,14) >= 2
 bdhi__y3(9,14): + y3(9,14) <= 2.52
 bdlo__y3(13,14): + y3(13,14) >= 2
 bdhi__y3(13,14): + y3(13,14) <= 2.52
 bdlo__y3(9,15): + y3(9,15) >= 2
 bdhi__y3(9,15): + y3(9,15) <= 2.52
 bdlo__y3(14,15): + y3(14,15) >= 2
 bdhi__y3(14,15): + y3(14,15) <= 2.52
 bdlo__y3(13,15): + y3(13,15) >= 2
 bdhi__y3(13,15): + y3(13,15) <= 2.52
 bdlo__y3(9,16): + y3(9,16) >= 2
 bdhi__y3(9,16): + y3(9,16) <= 2.52
 bdlo__y3(12,16): + y3(12,16) >= 2
 bdhi__y3(12,16): + y3(12,16) <= 2.52
 bdlo__y3(14,16): + y3(14,16) >= 2
 bdhi__y3(14,16): + y3(14,16) <= 2.52
 bdlo__y3(12,17): + y3(12,17) >= 2
 bdhi__y3(12,17): + y3(12,17) <= 2.52
 bdlo__y3(7,17): + y3(7,17) >= 2
 bdhi__y3(7,17): + y3(7,17) <= 2.52
 bdlo__y3(14,17): + y3(14,17) >= 2
 bdhi__y3(14,17): + y3(14,17) <= 2.52
 bdlo__y3(7,18): + y3(7,18) >= 2
 bdhi__y3(7,18): + y3(7,18) <= 2.52
 bdlo__y3(11,18): + y3(11,18) >= 2
 bdhi__y3(11,18): + y3(11,18) <= 2.52
 bdlo__y3(14,18): + y3(14,18) >= 2
 bdhi__y3(14,18): + y3(14,18) <= 2.52
 bdlo__y3(13,19): + y3(13,19) >= 2
 bdhi__y3(13,19): + y3(13,19) <= 2.52
 bdlo__y3(14,19): + y3(14,19) >= 2
 bdhi__y3(14,19): + y3(14,19) <= 2.52
 bdlo__y3(11,19): + y3(11,19) >= 2
 bdhi__y3(11,19): + y3(11,19) <= 2.52
 bdlo__y3(3,20): + y3(3,20) >= 2
 bdhi__y3(3,20): + y3(3,20) <= 2.52
 bdlo__y3(2,20): + y3(2,20) >= 2
 bdhi__y3(2,20): + y3(2,20) <= 2.52
 bdlo__y3(6,20): + y3(6,20) >= 2
 bdhi__y3(6,20): + y3(6,20) <= 2.52
 bdlo__y4(0,5): + y4(0,5) >= 2
 bdhi__y4(0,5): + y4(0,5) <= 3
 bdlo__y4(8,5): + y4(8,5) >= 2
 bdhi__y4(8,5): + y4(8,5) <= 3
 bdlo__y4(1,5): + y4(1,5) >= 2
 bdhi__y4(1,5): + y4(1,5) <= 3
 bdlo__y4(2,6): + y4(2,6) >= 2
 bdhi__y4(2,6): + y4(2,6) <= 3
 bdlo__y4(1,6): + y4(1,6) >= 2
 bdhi__y4(1,6): + y4(1,6) <= 3
 bdlo__y4(10,6): + y4(10,6) >= 2
 bdhi__y4(10,6): + y4(10,6) <= 3
 bdlo__y4(1,7): + y4(1,7) >= 2
 bdhi__y4(1,7): + y4(1,7) <= 3
 bdlo__y4(8,7): + y4(8,7) >= 2
 bdhi__y4(8,7): + y4(8,7) <= 3
 bdlo__y4(10,7): + y4(10,7) >= 2
 bdhi__y4(10,7): + y4(10,7) <= 3
 bdlo__y4(6,8): + y4(6,8) >= 2
 bdhi__y4(6,8): + y4(6,8) <= 3
 bdlo__y4(11,8): + y4(11,8) >= 2
 bdhi__y4(11,8): + y4(11,8) <= 3
 bdlo__y4(7,8): + y4(7,8) >= 2
 bdhi__y4(7,8): + y4(7,8) <= 3
 bdlo__y4(5,9): + y4(5,9) >= 2
 bdhi__y4(5,9): + y4(5,9) <= 3
 bdlo__y4(12,9): + y4(12,9) >= 2
 bdhi__y4(12,9): + y4(12,9) <= 3
 bdlo__y4(9,9): + y4(9,9) >= 2
 bdhi__y4(9,9): + y4(9,9) <= 3
 bdlo__y4(5,10): + y4(5,10) >= 2
 bdhi__y4(5,10): + y4(5,10) <= 3
 bdlo__y4(4,10): + y4(4,10) >= 2
 bdhi__y4(4,10): + y4(4,10) <= 3
 bdlo__y4(12,10): + y4(12,10) >= 2
 bdhi__y4(12,10): + y4(12,10) <= 3
 bdlo__y4(4,11): + y4(4,11) >= 2
 bdhi__y4(4,11): + y4(4,11) <= 3
 bdlo__y4(7,11): + y4(7,11) >= 2
 bdhi__y4(7,11): + y4(7,11) <= 3
 bdlo__y4(12,11): + y4(12,11) >= 2
 bdhi__y4(12,11): + y4(12,11) <= 3
 bdlo__y4(10,12): + y4(10,12) >= 2
 bdhi__y4(10,12): + y4(10,12) <= 3
 bdlo__y4(13,12): + y4(13,12) >= 2
 bdhi__y4(13,12): + y4(13,12) <= 3
 bdlo__y4(11,12): + y4(11,12) >= 2
 bdhi__y4(11,12): + y4(11,12) <= 3
 bdlo__y4(10,13): + y4(10,13) >= 2
 bdhi__y4(10,13): + y4(10,13) <= 3
 bdlo__y4(8,13): + y4(8,13) >= 2
 bdhi__y4(8,13): + y4(8,13) <= 3
 bdlo__y4(13,13): + y4(13,13) >= 2
 bdhi__y4(13,13): + y4(13,13) <= 3
 bdlo__y4(8,14): + y4(8,14) >= 2
 bdhi__y4(8,14): + y4(8,14) <= 3
 bdlo__y4(9,14): + y4(9,14) >= 2
 bdhi__y4(9,14): + y4(9,14) <= 3
 bdlo__y4(13,14): + y4(13,14) >= 2
 bdhi__y4(13,14): + y4(13,14) <= 3
 bdlo__y4(9,15): + y4(9,15) >= 2
 bdhi__y4(9,15): + y4(9,15) <= 3
 bdlo__y4(14,15): + y4(14,15) >= 2
 bdhi__y4(14,15): + y4(14,15) <= 3
 bdlo__y4(13,15): + y4(13,15) >= 2
 bdhi__y4(13,15): + y4(13,15) <= 3
 bdlo__y4(9,16): + y4(9,16) >= 2
 bdhi__y4(9,16): + y4(9,16) <= 3
 bdlo__y4(12,16): + y4(12,16) >= 2
 bdhi__y4(12,16): + y4(12,16) <= 3
 bdlo__y4(14,16): + y4(14,16) >= 2
 bdhi__y4(14,16): + y4(14,16) <= 3
 bdlo__y4(12,17): + y4(12,17) >= 2
 bdhi__y4(12,17): + y4(12,17) <= 3
 bdlo__y4(7,17): + y4(7,17) >= 2
 bdhi__y4(7,17): + y4(7,17) <= 3
 bdlo__y4(14,17): + y4(14,17) >= 2
 bdhi__y4(14,17): + y4(14,17) <= 3
 bdlo__y4(7,18): + y4(7,18) >= 2
 bdhi__y4(7,18): + y4(7,18) <= 3
 bdlo__y4(11,18): + y4(11,18) >= 2
 bdhi__y4(11,18): + y4(11,18) <= 3
 bdlo__y4(14,18): + y4(14,18) >= 2
 bdhi__y4(14,18): + y4(14,18) <= 3
 bdlo__y4(13,19): + y4(13,19) >= 2
 bdhi__y4(13,19): + y4(13,19) <= 3
 bdlo__y4(14,19): + y4(14,19) >= 2
 bdhi__y4(14,19): + y4(14,19) <= 3
 bdlo__y4(11,19): + y4(11,19) >= 2
 bdhi__y4(11,19): + y4(11,19) <= 3
 bdlo__y4(3,20): + y4(3,20) >= 2
 bdhi__y4(3,20): + y4(3,20) <= 3
 bdlo__y4(2,20): + y4(2,20) >= 2
 bdhi__y4(2,20): + y4(2,20) <= 3
 bdlo__y4(6,20): + y4(6,20) >= 2
 bdhi__y4(6,20): + y4(6,20) <= 3
 bdlo__y5(3,0): + y5(3,0) >= 2
 bdhi__y5(3,0): + y5(3,0) <= 3
 bdlo__y5(6,0): + y5(6,0) >= 2
 bdhi__y5(6,0): + y5(6,0) <= 3
 bdlo__y5(7,0): + y5(7,0) >= 2
 bdhi__y5(7,0): + y5(7,0) <= 3
 bdlo__y5(4,0): + y5(4,0) >= 2
 bdhi__y5(4,0): + y5(4,0) <= 3
 bdlo__y5(0,1): + y5(0,1) >= 2
 bdhi__y5(0,1): + y5(0,1) <= 3
 bdlo__y5(5,1): + y5(5,1) >= 2
 bdhi__y5(5,1): + y5(5,1) <= 3
 bdlo__y5(9,1): + y5(9,1) >= 2
 bdhi__y5(9,1): + y5(9,1) <= 3
 bdlo__y5(8,1): + y5(8,1) >= 2
 bdhi__y5(8,1): + y5(8,1) <= 3
 bdlo__y5(2,2): + y5(2,2) >= 2
 bdhi__y5(2,2): + y5(2,2) <= 3
 bdlo__y5(10,2): + y5(10,2) >= 2
 bdhi__y5(10,2): + y5(10,2) <= 3
 bdlo__y5(11,2): + y5(11,2) >= 2
 bdhi__y5(11,2): + y5(11,2) <= 3
 bdlo__y5(6,2): + y5(6,2) >= 2
 bdhi__y5(6,2): + y5(6,2) <= 3
 bdlo__y5(1,3): + y5(1,3) >= 2
 bdhi__y5(1,3): + y5(1,3) <= 3
 bdlo__y5(2,3): + y5(2,3) >= 2
 bdhi__y5(2,3): + y5(2,3) <= 3
 bdlo__y5(3,3): + y5(3,3) >= 2
 bdhi__y5(3,3): + y5(3,3) <= 3
 bdlo__y5(0,3): + y5(0,3) >= 2
 bdhi__y5(0,3): + y5(0,3) <= 3
 bdlo__y5(3,4): + y5(3,4) >= 2
 bdhi__y5(3,4): + y5(3,4) <= 3
 bdlo__y5(4,4): + y5(4,4) >= 2
 bdhi__y5(4,4): + y5(4,4) <= 3
 bdlo__y5(5,4): + y5(5,4) >= 2
 bdhi__y5(5,4): + y5(5,4) <= 3
 bdlo__y5(0,4): + y5(0,4) >= 2
 bdhi__y5(0,4): + y5(0,4) <= 3
 bdlo__y5(0,5): + y5(0,5) >= 2
 bdhi__y5(0,5): + y5(0,5) <= 3
 bdlo__y5(8,5): + y5(8,5) >= 2
 bdhi__y5(8,5): + y5(8,5) <= 3
 bdlo__y5(1,5): + y5(1,5) >= 2
 bdhi__y5(1,5): + y5(1,5) <= 3
 bdlo__y5(2,6): + y5(2,6) >= 2
 bdhi__y5(2,6): + y5(2,6) <= 3
 bdlo__y5(1,6): + y5(1,6) >= 2
 bdhi__y5(1,6): + y5(1,6) <= 3
 bdlo__y5(10,6): + y5(10,6) >= 2
 bdhi__y5(10,6): + y5(10,6) <= 3
 bdlo__y5(1,7): + y5(1,7) >= 2
 bdhi__y5(1,7): + y5(1,7) <= 3
 bdlo__y5(8,7): + y5(8,7) >= 2
 bdhi__y5(8,7): + y5(8,7) <= 3
 bdlo__y5(10,7): + y5(10,7) >= 2
 bdhi__y5(10,7): + y5(10,7) <= 3
 bdlo__y5(6,8): + y5(6,8) >= 2
 bdhi__y5(6,8): + y5(6,8) <= 3
 bdlo__y5(11,8): + y5(11,8) >= 2
 bdhi__y5(11,8): + y5(11,8) <= 3
 bdlo__y5(7,8): + y5(7,8) >= 2
 bdhi__y5(7,8): + y5(7,8) <= 3
 bdlo__y5(5,9): + y5(5,9) >= 2
 bdhi__y5(5,9): + y5(5,9) <= 3
 bdlo__y5(12,9): + y5(12,9) >= 2
 bdhi__y5(12,9): + y5(12,9) <= 3
 bdlo__y5(9,9): + y5(9,9) >= 2
 bdhi__y5(9,9): + y5(9,9) <= 3
 bdlo__y5(5,10): + y5(5,10) >= 2
 bdhi__y5(5,10): + y5(5,10) <= 3
 bdlo__y5(4,10): + y5(4,10) >= 2
 bdhi__y5(4,10): + y5(4,10) <= 3
 bdlo__y5(12,10): + y5(12,10) >= 2
 bdhi__y5(12,10): + y5(12,10) <= 3
 bdlo__y5(4,11): + y5(4,11) >= 2
 bdhi__y5(4,11): + y5(4,11) <= 3
 bdlo__y5(7,11): + y5(7,11) >= 2
 bdhi__y5(7,11): + y5(7,11) <= 3
 bdlo__y5(12,11): + y5(12,11) >= 2
 bdhi__y5(12,11): + y5(12,11) <= 3
 bdlo__y5(10,12): + y5(10,12) >= 2
 bdhi__y5(10,12): + y5(10,12) <= 3
 bdlo__y5(13,12): + y5(13,12) >= 2
 bdhi__y5(13,12): + y5(13,12) <= 3
 bdlo__y5(11,12): + y5(11,12) >= 2
 bdhi__y5(11,12): + y5(11,12) <= 3
 bdlo__y5(10,13): + y5(10,13) >= 2
 bdhi__y5(10,13): + y5(10,13) <= 3
 bdlo__y5(8,13): + y5(8,13) >= 2
 bdhi__y5(8,13): + y5(8,13) <= 3
 bdlo__y5(13,13): + y5(13,13) >= 2
 bdhi__y5(13,13): + y5(13,13) <= 3
 bdlo__y5(8,14): + y5(8,14) >= 2
 bdhi__y5(8,14): + y5(8,14) <= 3
 bdlo__y5(9,14): + y5(9,14) >= 2
 bdhi__y5(9,14): + y5(9,14) <= 3
 bdlo__y5(13,14): + y5(13,14) >= 2
 bdhi__y5(13,14): + y5(13,14) <= 3
 bdlo__y5(9,15): + y5(9,15) >= 2
 bdhi__y5(9,15): + y5(9,15) <= 3
 bdlo__y5(14,15): + y5(14,15) >= 2
 bdhi__y5(14,15): + y5(14,15) <= 3
 bdlo__y5(13,15): + y5(13,15) >= 2
 bdhi__y5(13,15): + y5(13,15) <= 3
 bdlo__y5(9,16): + y5(9,16) >= 2
 bdhi__y5(9,16): + y5(9,16) <= 3
 bdlo__y5(12,16): + y5(12,16) >= 2
 bdhi__y5(12,16): + y5(12,16) <= 3
 bdlo__y5(14,16): + y5(14,16) >= 2
 bdhi__y5(14,16): + y5(14,16) <= 3
 bdlo__y5(12,17): + y5(12,17) >= 2
 bdhi__y5(12,17): + y5(12,17) <= 3
 bdlo__y5(7,17): + y5(7,17) >= 2
 bdhi__y5(7,17): + y5(7,17) <= 3
 bdlo__y5(14,17): + y5(14,17) >= 2
 bdhi__y5(14,17): + y5(14,17) <= 3
 bdlo__y5(7,18): + y5(7,18) >= 2
 bdhi__y5(7,18): + y5(7,18) <= 3
 bdlo__y5(11,18): + y5(11,18) >= 2
 bdhi__y5(11,18): + y5(11,18) <= 3
 bdlo__y5(14,18): + y5(14,18) >= 2
 bdhi__y5(14,18): + y5(14,18) <= 3
 bdlo__y5(13,19): + y5(13,19) >= 2
 bdhi__y5(13,19): + y5(13,19) <= 3
 bdlo__y5(14,19): + y5(14,19) >= 2
 bdhi__y5(14,19): + y5(14,19) <= 3
 bdlo__y5(11,19): + y5(11,19) >= 2
 bdhi__y5(11,19): + y5(11,19) <= 3
 bdlo__y5(3,20): + y5(3,20) >= 2
 bdhi__y5(3,20): + y5(3,20) <= 3
 bdlo__y5(2,20): + y5(2,20) >= 2
 bdhi__y5(2,20): + y5(2,20) <= 3
 bdlo__y5(6,20): + y5(6,20) >= 2
 bdhi__y5(6,20): + y5(6,20) <= 3
 bdlo__y6(3,0): + y6(3,0) >= 2
 bdhi__y6(3,0): + y6(3,0) <= 3
 bdlo__y6(6,0): + y6(6,0) >= 2
 bdhi__y6(6,0): + y6(6,0) <= 3
 bdlo__y6(7,0): + y6(7,0) >= 2
 bdhi__y6(7,0): + y6(7,0) <= 3
 bdlo__y6(4,0): + y6(4,0) >= 2
 bdhi__y6(4,0): + y6(4,0) <= 3
 bdlo__y6(0,1): + y6(0,1) >= 2
 bdhi__y6(0,1): + y6(0,1) <= 3
 bdlo__y6(5,1): + y6(5,1) >= 2
 bdhi__y6(5,1): + y6(5,1) <= 3
 bdlo__y6(9,1): + y6(9,1) >= 2
 bdhi__y6(9,1): + y6(9,1) <= 3
 bdlo__y6(8,1): + y6(8,1) >= 2
 bdhi__y6(8,1): + y6(8,1) <= 3
 bdlo__y6(2,2): + y6(2,2) >= 2
 bdhi__y6(2,2): + y6(2,2) <= 3
 bdlo__y6(10,2): + y6(10,2) >= 2
 bdhi__y6(10,2): + y6(10,2) <= 3
 bdlo__y6(11,2): + y6(11,2) >= 2
 bdhi__y6(11,2): + y6(11,2) <= 3
 bdlo__y6(6,2): + y6(6,2) >= 2
 bdhi__y6(6,2): + y6(6,2) <= 3
 bdlo__y6(1,3): + y6(1,3) >= 2
 bdhi__y6(1,3): + y6(1,3) <= 3
 bdlo__y6(2,3): + y6(2,3) >= 2
 bdhi__y6(2,3): + y6(2,3) <= 3
 bdlo__y6(3,3): + y6(3,3) >= 2
 bdhi__y6(3,3): + y6(3,3) <= 3
 bdlo__y6(0,3): + y6(0,3) >= 2
 bdhi__y6(0,3): + y6(0,3) <= 3
 bdlo__y6(3,4): + y6(3,4) >= 2
 bdhi__y6(3,4): + y6(3,4) <= 3
 bdlo__y6(4,4): + y6(4,4) >= 2
 bdhi__y6(4,4): + y6(4,4) <= 3
 bdlo__y6(5,4): + y6(5,4) >= 2
 bdhi__y6(5,4): + y6(5,4) <= 3
 bdlo__y6(0,4): + y6(0,4) >= 2
 bdhi__y6(0,4): + y6(0,4) <= 3
 bdlo__y6(0,5): + y6(0,5) >= 2
 bdhi__y6(0,5): + y6(0,5) <= 3
 bdlo__y6(8,5): + y6(8,5) >= 2
 bdhi__y6(8,5): + y6(8,5) <= 3
 bdlo__y6(1,5): + y6(1,5) >= 2
 bdhi__y6(1,5): + y6(1,5) <= 3
 bdlo__y6(2,6): + y6(2,6) >= 2
 bdhi__y6(2,6): + y6(2,6) <= 3
 bdlo__y6(1,6): + y6(1,6) >= 2
 bdhi__y6(1,6): + y6(1,6) <= 3
 bdlo__y6(10,6): + y6(10,6) >= 2
 bdhi__y6(10,6): + y6(10,6) <= 3
 bdlo__y6(1,7): + y6(1,7) >= 2
 bdhi__y6(1,7): + y6(1,7) <= 3
 bdlo__y6(8,7): + y6(8,7) >= 2
 bdhi__y6(8,7): + y6(8,7) <= 3
 bdlo__y6(10,7): + y6(10,7) >= 2
 bdhi__y6(10,7): + y6(10,7) <= 3
 bdlo__y6(6,8): + y6(6,8) >= 2
 bdhi__y6(6,8): + y6(6,8) <= 3
 bdlo__y6(11,8): + y6(11,8) >= 2
 bdhi__y6(11,8): + y6(11,8) <= 3
 bdlo__y6(7,8): + y6(7,8) >= 2
 bdhi__y6(7,8): + y6(7,8) <= 3
 bdlo__y6(5,9): + y6(5,9) >= 2
 bdhi__y6(5,9): + y6(5,9) <= 3
 bdlo__y6(12,9): + y6(12,9) >= 2
 bdhi__y6(12,9): + y6(12,9) <= 3
 bdlo__y6(9,9): + y6(9,9) >= 2
 bdhi__y6(9,9): + y6(9,9) <= 3
 bdlo__y6(5,10): + y6(5,10) >= 2
 bdhi__y6(5,10): + y6(5,10) <= 3
 bdlo__y6(4,10): + y6(4,10) >= 2
 bdhi__y6(4,10): + y6(4,10) <= 3
 bdlo__y6(12,10): + y6(12,10) >= 2
 bdhi__y6(12,10): + y6(12,10) <= 3
 bdlo__y6(4,11): + y6(4,11) >= 2
 bdhi__y6(4,11): + y6(4,11) <= 3
 bdlo__y6(7,11): + y6(7,11) >= 2
 bdhi__y6(7,11): + y6(7,11) <= 3
 bdlo__y6(12,11): + y6(12,11) >= 2
 bdhi__y6(12,11): + y6(12,11) <= 3
 bdlo__y6(10,12): + y6(10,12) >= 2
 bdhi__y6(10,12): + y6(10,12) <= 3
 bdlo__y6(13,12): + y6(13,12) >= 2
 bdhi__y6(13,12): + y6(13,12) <= 3
 bdlo__y6(11,12): + y6(11,12) >= 2
 bdhi__y6(11,12): + y6(11,12) <= 3
 bdlo__y6(10,13): + y6(10,13) >= 2
 bdhi__y6(10,13): + y6(10,13) <= 3
 bdlo__y6(8,13): + y6(8,13) >= 2
 bdhi__y6(8,13): + y6(8,13) <= 3
 bdlo__y6(13,13): + y6(13,13) >= 2
 bdhi__y6(13,13): + y6(13,13) <= 3
 bdlo__y6(8,14): + y6(8,14) >= 2
 bdhi__y6(8,14): + y6(8,14) <= 3
 bdlo__y6(9,14): + y6(9,14) >= 2
 bdhi__y6(9,14): + y6(9,14) <= 3
 bdlo__y6(13,14): + y6(13,14) >= 2
 bdhi__y6(13,14): + y6(13,14) <= 3
 bdlo__y6(9,15): + y6(9,15) >= 2
 bdhi__y6(9,15): + y6(9,15) <= 3
 bdlo__y6(14,15): + y6(14,15) >= 2
 bdhi__y6(14,15): + y6(14,15) <= 3
 bdlo__y6(13,15): + y6(13,15) >= 2
 bdhi__y6(13,15): + y6(13,15) <= 3
 bdlo__y6(9,16): + y6(9,16) >= 2
 bdhi__y6(9,16): + y6(9,16) <= 3
 bdlo__y6(12,16): + y6(12,16) >= 2
 bdhi__y6(12,16): + y6(12,16) <= 3
 bdlo__y6(14,16): + y6(14,16) >= 2
 bdhi__y6(14,16): + y6(14,16) <= 3
 bdlo__y6(12,17): + y6(12,17) >= 2
 bdhi__y6(12,17): + y6(12,17) <= 3
 bdlo__y6(7,17): + y6(7,17) >= 2
 bdhi__y6(7,17): + y6(7,17) <= 3
 bdlo__y6(14,17): + y6(14,17) >= 2
 bdhi__y6(14,17): + y6(14,17) <= 3
 bdlo__y6(7,18): + y6(7,18) >= 2
 bdhi__y6(7,18): + y6(7,18) <= 3
 bdlo__y6(11,18): + y6(11,18) >= 2
 bdhi__y6(11,18): + y6(11,18) <= 3
 bdlo__y6(14,18): + y6(14,18) >= 2
 bdhi__y6(14,18): + y6(14,18) <= 3
 bdlo__y6(13,19): + y6(13,19) >= 2
 bdhi__y6(13,19): + y6(13,19) <= 3
 bdlo__y6(14,19): + y6(14,19) >= 2
 bdhi__y6(14,19): + y6(14,19) <= 3
 bdlo__y6(11,19): + y6(11,19) >= 2
 bdhi__y6(11,19): + y6(11,19) <= 3
 bdlo__y6(3,20): + y6(3,20) >= 2
 bdhi__y6(3,20): + y6(3,20) <= 3
 bdlo__y6(2,20): + y6(2,20) >= 2
 bdhi__y6(2,20): + y6(2,20) <= 3
 bdlo__y6(6,20): + y6(6,20) >= 2
 bdhi__y6(6,20): + y6(6,20) <= 3
 bdlo__y8(3,0): + y8(3,0) >= 2
 bdhi__y8(3,0): + y8(3,0) <= 2.52
 bdlo__y8(6,0): + y8(6,0) >= 2
 bdhi__y8(6,0): + y8(6,0) <= 2.52
 bdlo__y8(7,0): + y8(7,0) >= 2
 bdhi__y8(7,0): + y8(7,0) <= 2.52
 bdlo__y8(4,0): + y8(4,0) >= 2
 bdhi__y8(4,0): + y8(4,0) <= 2.52
 bdlo__y8(0,1): + y8(0,1) >= 2
 bdhi__y8(0,1): + y8(0,1) <= 2.52
 bdlo__y8(5,1): + y8(5,1) >= 2
 bdhi__y8(5,1): + y8(5,1) <= 2.52
 bdlo__y8(9,1): + y8(9,1) >= 2
 bdhi__y8(9,1): + y8(9,1) <= 2.52
 bdlo__y8(8,1): + y8(8,1) >= 2
 bdhi__y8(8,1): + y8(8,1) <= 2.52
 bdlo__y8(2,2): + y8(2,2) >= 2
 bdhi__y8(2,2): + y8(2,2) <= 2.52
 bdlo__y8(10,2): + y8(10,2) >= 2
 bdhi__y8(10,2): + y8(10,2) <= 2.52
 bdlo__y8(11,2): + y8(11,2) >= 2
 bdhi__y8(11,2): + y8(11,2) <= 2.52
 bdlo__y8(6,2): + y8(6,2) >= 2
 bdhi__y8(6,2): + y8(6,2) <= 2.52
 bdlo__y8(1,3): + y8(1,3) >= 2
 bdhi__y8(1,3): + y8(1,3) <= 2.52
 bdlo__y8(2,3): + y8(2,3) >= 2
 bdhi__y8(2,3): + y8(2,3) <= 2.52
 bdlo__y8(3,3): + y8(3,3) >= 2
 bdhi__y8(3,3): + y8(3,3) <= 2.52
 bdlo__y8(0,3): + y8(0,3) >= 2
 bdhi__y8(0,3): + y8(0,3) <= 2.52
 bdlo__y8(3,4): + y8(3,4) >= 2
 bdhi__y8(3,4): + y8(3,4) <= 2.52
 bdlo__y8(4,4): + y8(4,4) >= 2
 bdhi__y8(4,4): + y8(4,4) <= 2.52
 bdlo__y8(5,4): + y8(5,4) >= 2
 bdhi__y8(5,4): + y8(5,4) <= 2.52
 bdlo__y8(0,4): + y8(0,4) >= 2
 bdhi__y8(0,4): + y8(0,4) <= 2.52
 bdlo__y9(3,0): + y9(3,0) >= 2
 bdhi__y9(3,0): + y9(3,0) <= 2.52
 bdlo__y9(6,0): + y9(6,0) >= 2
 bdhi__y9(6,0): + y9(6,0) <= 2.52
 bdlo__y9(7,0): + y9(7,0) >= 2
 bdhi__y9(7,0): + y9(7,0) <= 2.52
 bdlo__y9(4,0): + y9(4,0) >= 2
 bdhi__y9(4,0): + y9(4,0) <= 2.52
 bdlo__y9(0,1): + y9(0,1) >= 2
 bdhi__y9(0,1): + y9(0,1) <= 2.52
 bdlo__y9(5,1): + y9(5,1) >= 2
 bdhi__y9(5,1): + y9(5,1) <= 2.52
 bdlo__y9(9,1): + y9(9,1) >= 2
 bdhi__y9(9,1): + y9(9,1) <= 2.52
 bdlo__y9(8,1): + y9(8,1) >= 2
 bdhi__y9(8,1): + y9(8,1) <= 2.52
 bdlo__y9(2,2): + y9(2,2) >= 2
 bdhi__y9(2,2): + y9(2,2) <= 2.52
 bdlo__y9(10,2): + y9(10,2) >= 2
 bdhi__y9(10,2): + y9(10,2) <= 2.52
 bdlo__y9(11,2): + y9(11,2) >= 2
 bdhi__y9(11,2): + y9(11,2) <= 2.52
 bdlo__y9(6,2): + y9(6,2) >= 2
 bdhi__y9(6,2): + y9(6,2) <= 2.52
 bdlo__y9(1,3): + y9(1,3) >= 2
 bdhi__y9(1,3): + y9(1,3) <= 2.52
 bdlo__y9(2,3): + y9(2,3) >= 2
 bdhi__y9(2,3): + y9(2,3) <= 2.52
 bdlo__y9(3,3): + y9(3,3) >= 2
 bdhi__y9(3,3): + y9(3,3) <= 2.52
 bdlo__y9(0,3): + y9(0,3) >= 2
 bdhi__y9(0,3): + y9(0,3) <= 2.52
 bdlo__y9(3,4): + y9(3,4) >= 2
 bdhi__y9(3,4): + y9(3,4) <= 2.52
 bdlo__y9(4,4): + y9(4,4) >= 2
 bdhi__y9(4,4): + y9(4,4) <= 2.52
 bdlo__y9(5,4): + y9(5,4) >= 2
 bdhi__y9(5,4): + y9(5,4) <= 2.52
 bdlo__y9(0,4): + y9(0,4) >= 2
 bdhi__y9(0,4): + y9(0,4) <= 2.52

End
